# vtk DataFile Version 3.0
#This file was generated by the deal.II library on 2015/11/9 at 12:22:47
ASCII
DATASET UNSTRUCTURED_GRID

POINTS 4096 double
0 0 0
0.03125 0 0
0 0.03125 0
0.03125 0.03125 0
0.03125 0 0
0.0625 0 0
0.03125 0.03125 0
0.0625 0.03125 0
0 0.03125 0
0.03125 0.03125 0
0 0.0625 0
0.03125 0.0625 0
0.03125 0.03125 0
0.0625 0.03125 0
0.03125 0.0625 0
0.0625 0.0625 0
0.0625 0 0
0.09375 0 0
0.0625 0.03125 0
0.09375 0.03125 0
0.09375 0 0
0.125 0 0
0.09375 0.03125 0
0.125 0.03125 0
0.0625 0.03125 0
0.09375 0.03125 0
0.0625 0.0625 0
0.09375 0.0625 0
0.09375 0.03125 0
0.125 0.03125 0
0.09375 0.0625 0
0.125 0.0625 0
0 0.0625 0
0.03125 0.0625 0
0 0.09375 0
0.03125 0.09375 0
0.03125 0.0625 0
0.0625 0.0625 0
0.03125 0.09375 0
0.0625 0.09375 0
0 0.09375 0
0.03125 0.09375 0
0 0.125 0
0.03125 0.125 0
0.03125 0.09375 0
0.0625 0.09375 0
0.03125 0.125 0
0.0625 0.125 0
0.0625 0.0625 0
0.09375 0.0625 0
0.0625 0.09375 0
0.09375 0.09375 0
0.09375 0.0625 0
0.125 0.0625 0
0.09375 0.09375 0
0.125 0.09375 0
0.0625 0.09375 0
0.09375 0.09375 0
0.0625 0.125 0
0.09375 0.125 0
0.09375 0.09375 0
0.125 0.09375 0
0.09375 0.125 0
0.125 0.125 0
0.125 0 0
0.15625 0 0
0.125 0.03125 0
0.15625 0.03125 0
0.15625 0 0
0.1875 0 0
0.15625 0.03125 0
0.1875 0.03125 0
0.125 0.03125 0
0.15625 0.03125 0
0.125 0.0625 0
0.15625 0.0625 0
0.15625 0.03125 0
0.1875 0.03125 0
0.15625 0.0625 0
0.1875 0.0625 0
0.1875 0 0
0.21875 0 0
0.1875 0.03125 0
0.21875 0.03125 0
0.21875 0 0
0.25 0 0
0.21875 0.03125 0
0.25 0.03125 0
0.1875 0.03125 0
0.21875 0.03125 0
0.1875 0.0625 0
0.21875 0.0625 0
0.21875 0.03125 0
0.25 0.03125 0
0.21875 0.0625 0
0.25 0.0625 0
0.125 0.0625 0
0.15625 0.0625 0
0.125 0.09375 0
0.15625 0.09375 0
0.15625 0.0625 0
0.1875 0.0625 0
0.15625 0.09375 0
0.1875 0.09375 0
0.125 0.09375 0
0.15625 0.09375 0
0.125 0.125 0
0.15625 0.125 0
0.15625 0.09375 0
0.1875 0.09375 0
0.15625 0.125 0
0.1875 0.125 0
0.1875 0.0625 0
0.21875 0.0625 0
0.1875 0.09375 0
0.21875 0.09375 0
0.21875 0.0625 0
0.25 0.0625 0
0.21875 0.09375 0
0.25 0.09375 0
0.1875 0.09375 0
0.21875 0.09375 0
0.1875 0.125 0
0.21875 0.125 0
0.21875 0.09375 0
0.25 0.09375 0
0.21875 0.125 0
0.25 0.125 0
0 0.125 0
0.03125 0.125 0
0 0.15625 0
0.03125 0.15625 0
0.03125 0.125 0
0.0625 0.125 0
0.03125 0.15625 0
0.0625 0.15625 0
0 0.15625 0
0.03125 0.15625 0
0 0.1875 0
0.03125 0.1875 0
0.03125 0.15625 0
0.0625 0.15625 0
0.03125 0.1875 0
0.0625 0.1875 0
0.0625 0.125 0
0.09375 0.125 0
0.0625 0.15625 0
0.09375 0.15625 0
0.09375 0.125 0
0.125 0.125 0
0.09375 0.15625 0
0.125 0.15625 0
0.0625 0.15625 0
0.09375 0.15625 0
0.0625 0.1875 0
0.09375 0.1875 0
0.09375 0.15625 0
0.125 0.15625 0
0.09375 0.1875 0
0.125 0.1875 0
0 0.1875 0
0.03125 0.1875 0
0 0.21875 0
0.03125 0.21875 0
0.03125 0.1875 0
0.0625 0.1875 0
0.03125 0.21875 0
0.0625 0.21875 0
0 0.21875 0
0.03125 0.21875 0
0 0.25 0
0.03125 0.25 0
0.03125 0.21875 0
0.0625 0.21875 0
0.03125 0.25 0
0.0625 0.25 0
0.0625 0.1875 0
0.09375 0.1875 0
0.0625 0.21875 0
0.09375 0.21875 0
0.09375 0.1875 0
0.125 0.1875 0
0.09375 0.21875 0
0.125 0.21875 0
0.0625 0.21875 0
0.09375 0.21875 0
0.0625 0.25 0
0.09375 0.25 0
0.09375 0.21875 0
0.125 0.21875 0
0.09375 0.25 0
0.125 0.25 0
0.125 0.125 0
0.15625 0.125 0
0.125 0.15625 0
0.15625 0.15625 0
0.15625 0.125 0
0.1875 0.125 0
0.15625 0.15625 0
0.1875 0.15625 0
0.125 0.15625 0
0.15625 0.15625 0
0.125 0.1875 0
0.15625 0.1875 0
0.15625 0.15625 0
0.1875 0.15625 0
0.15625 0.1875 0
0.1875 0.1875 0
0.1875 0.125 0
0.21875 0.125 0
0.1875 0.15625 0
0.21875 0.15625 0
0.21875 0.125 0
0.25 0.125 0
0.21875 0.15625 0
0.25 0.15625 0
0.1875 0.15625 0
0.21875 0.15625 0
0.1875 0.1875 0
0.21875 0.1875 0
0.21875 0.15625 0
0.25 0.15625 0
0.21875 0.1875 0
0.25 0.1875 0
0.125 0.1875 0
0.15625 0.1875 0
0.125 0.21875 0
0.15625 0.21875 0
0.15625 0.1875 0
0.1875 0.1875 0
0.15625 0.21875 0
0.1875 0.21875 0
0.125 0.21875 0
0.15625 0.21875 0
0.125 0.25 0
0.15625 0.25 0
0.15625 0.21875 0
0.1875 0.21875 0
0.15625 0.25 0
0.1875 0.25 0
0.1875 0.1875 0
0.21875 0.1875 0
0.1875 0.21875 0
0.21875 0.21875 0
0.21875 0.1875 0
0.25 0.1875 0
0.21875 0.21875 0
0.25 0.21875 0
0.1875 0.21875 0
0.21875 0.21875 0
0.1875 0.25 0
0.21875 0.25 0
0.21875 0.21875 0
0.25 0.21875 0
0.21875 0.25 0
0.25 0.25 0
0.25 0 0
0.28125 0 0
0.25 0.03125 0
0.28125 0.03125 0
0.28125 0 0
0.3125 0 0
0.28125 0.03125 0
0.3125 0.03125 0
0.25 0.03125 0
0.28125 0.03125 0
0.25 0.0625 0
0.28125 0.0625 0
0.28125 0.03125 0
0.3125 0.03125 0
0.28125 0.0625 0
0.3125 0.0625 0
0.3125 0 0
0.34375 0 0
0.3125 0.03125 0
0.34375 0.03125 0
0.34375 0 0
0.375 0 0
0.34375 0.03125 0
0.375 0.03125 0
0.3125 0.03125 0
0.34375 0.03125 0
0.3125 0.0625 0
0.34375 0.0625 0
0.34375 0.03125 0
0.375 0.03125 0
0.34375 0.0625 0
0.375 0.0625 0
0.25 0.0625 0
0.28125 0.0625 0
0.25 0.09375 0
0.28125 0.09375 0
0.28125 0.0625 0
0.3125 0.0625 0
0.28125 0.09375 0
0.3125 0.09375 0
0.25 0.09375 0
0.28125 0.09375 0
0.25 0.125 0
0.28125 0.125 0
0.28125 0.09375 0
0.3125 0.09375 0
0.28125 0.125 0
0.3125 0.125 0
0.3125 0.0625 0
0.34375 0.0625 0
0.3125 0.09375 0
0.34375 0.09375 0
0.34375 0.0625 0
0.375 0.0625 0
0.34375 0.09375 0
0.375 0.09375 0
0.3125 0.09375 0
0.34375 0.09375 0
0.3125 0.125 0
0.34375 0.125 0
0.34375 0.09375 0
0.375 0.09375 0
0.34375 0.125 0
0.375 0.125 0
0.375 0 0
0.40625 0 0
0.375 0.03125 0
0.40625 0.03125 0
0.40625 0 0
0.4375 0 0
0.40625 0.03125 0
0.4375 0.03125 0
0.375 0.03125 0
0.40625 0.03125 0
0.375 0.0625 0
0.40625 0.0625 0
0.40625 0.03125 0
0.4375 0.03125 0
0.40625 0.0625 0
0.4375 0.0625 0
0.4375 0 0
0.46875 0 0
0.4375 0.03125 0
0.46875 0.03125 0
0.46875 0 0
0.5 0 0
0.46875 0.03125 0
0.5 0.03125 0
0.4375 0.03125 0
0.46875 0.03125 0
0.4375 0.0625 0
0.46875 0.0625 0
0.46875 0.03125 0
0.5 0.03125 0
0.46875 0.0625 0
0.5 0.0625 0
0.375 0.0625 0
0.40625 0.0625 0
0.375 0.09375 0
0.40625 0.09375 0
0.40625 0.0625 0
0.4375 0.0625 0
0.40625 0.09375 0
0.4375 0.09375 0
0.375 0.09375 0
0.40625 0.09375 0
0.375 0.125 0
0.40625 0.125 0
0.40625 0.09375 0
0.4375 0.09375 0
0.40625 0.125 0
0.4375 0.125 0
0.4375 0.0625 0
0.46875 0.0625 0
0.4375 0.09375 0
0.46875 0.09375 0
0.46875 0.0625 0
0.5 0.0625 0
0.46875 0.09375 0
0.5 0.09375 0
0.4375 0.09375 0
0.46875 0.09375 0
0.4375 0.125 0
0.46875 0.125 0
0.46875 0.09375 0
0.5 0.09375 0
0.46875 0.125 0
0.5 0.125 0
0.25 0.125 0
0.28125 0.125 0
0.25 0.15625 0
0.28125 0.15625 0
0.28125 0.125 0
0.3125 0.125 0
0.28125 0.15625 0
0.3125 0.15625 0
0.25 0.15625 0
0.28125 0.15625 0
0.25 0.1875 0
0.28125 0.1875 0
0.28125 0.15625 0
0.3125 0.15625 0
0.28125 0.1875 0
0.3125 0.1875 0
0.3125 0.125 0
0.34375 0.125 0
0.3125 0.15625 0
0.34375 0.15625 0
0.34375 0.125 0
0.375 0.125 0
0.34375 0.15625 0
0.375 0.15625 0
0.3125 0.15625 0
0.34375 0.15625 0
0.3125 0.1875 0
0.34375 0.1875 0
0.34375 0.15625 0
0.375 0.15625 0
0.34375 0.1875 0
0.375 0.1875 0
0.25 0.1875 0
0.28125 0.1875 0
0.25 0.21875 0
0.28125 0.21875 0
0.28125 0.1875 0
0.3125 0.1875 0
0.28125 0.21875 0
0.3125 0.21875 0
0.25 0.21875 0
0.28125 0.21875 0
0.25 0.25 0
0.28125 0.25 0
0.28125 0.21875 0
0.3125 0.21875 0
0.28125 0.25 0
0.3125 0.25 0
0.3125 0.1875 0
0.34375 0.1875 0
0.3125 0.21875 0
0.34375 0.21875 0
0.34375 0.1875 0
0.375 0.1875 0
0.34375 0.21875 0
0.375 0.21875 0
0.3125 0.21875 0
0.34375 0.21875 0
0.3125 0.25 0
0.34375 0.25 0
0.34375 0.21875 0
0.375 0.21875 0
0.34375 0.25 0
0.375 0.25 0
0.375 0.125 0
0.40625 0.125 0
0.375 0.15625 0
0.40625 0.15625 0
0.40625 0.125 0
0.4375 0.125 0
0.40625 0.15625 0
0.4375 0.15625 0
0.375 0.15625 0
0.40625 0.15625 0
0.375 0.1875 0
0.40625 0.1875 0
0.40625 0.15625 0
0.4375 0.15625 0
0.40625 0.1875 0
0.4375 0.1875 0
0.4375 0.125 0
0.46875 0.125 0
0.4375 0.15625 0
0.46875 0.15625 0
0.46875 0.125 0
0.5 0.125 0
0.46875 0.15625 0
0.5 0.15625 0
0.4375 0.15625 0
0.46875 0.15625 0
0.4375 0.1875 0
0.46875 0.1875 0
0.46875 0.15625 0
0.5 0.15625 0
0.46875 0.1875 0
0.5 0.1875 0
0.375 0.1875 0
0.40625 0.1875 0
0.375 0.21875 0
0.40625 0.21875 0
0.40625 0.1875 0
0.4375 0.1875 0
0.40625 0.21875 0
0.4375 0.21875 0
0.375 0.21875 0
0.40625 0.21875 0
0.375 0.25 0
0.40625 0.25 0
0.40625 0.21875 0
0.4375 0.21875 0
0.40625 0.25 0
0.4375 0.25 0
0.4375 0.1875 0
0.46875 0.1875 0
0.4375 0.21875 0
0.46875 0.21875 0
0.46875 0.1875 0
0.5 0.1875 0
0.46875 0.21875 0
0.5 0.21875 0
0.4375 0.21875 0
0.46875 0.21875 0
0.4375 0.25 0
0.46875 0.25 0
0.46875 0.21875 0
0.5 0.21875 0
0.46875 0.25 0
0.5 0.25 0
0 0.25 0
0.03125 0.25 0
0 0.28125 0
0.03125 0.28125 0
0.03125 0.25 0
0.0625 0.25 0
0.03125 0.28125 0
0.0625 0.28125 0
0 0.28125 0
0.03125 0.28125 0
0 0.3125 0
0.03125 0.3125 0
0.03125 0.28125 0
0.0625 0.28125 0
0.03125 0.3125 0
0.0625 0.3125 0
0.0625 0.25 0
0.09375 0.25 0
0.0625 0.28125 0
0.09375 0.28125 0
0.09375 0.25 0
0.125 0.25 0
0.09375 0.28125 0
0.125 0.28125 0
0.0625 0.28125 0
0.09375 0.28125 0
0.0625 0.3125 0
0.09375 0.3125 0
0.09375 0.28125 0
0.125 0.28125 0
0.09375 0.3125 0
0.125 0.3125 0
0 0.3125 0
0.03125 0.3125 0
0 0.34375 0
0.03125 0.34375 0
0.03125 0.3125 0
0.0625 0.3125 0
0.03125 0.34375 0
0.0625 0.34375 0
0 0.34375 0
0.03125 0.34375 0
0 0.375 0
0.03125 0.375 0
0.03125 0.34375 0
0.0625 0.34375 0
0.03125 0.375 0
0.0625 0.375 0
0.0625 0.3125 0
0.09375 0.3125 0
0.0625 0.34375 0
0.09375 0.34375 0
0.09375 0.3125 0
0.125 0.3125 0
0.09375 0.34375 0
0.125 0.34375 0
0.0625 0.34375 0
0.09375 0.34375 0
0.0625 0.375 0
0.09375 0.375 0
0.09375 0.34375 0
0.125 0.34375 0
0.09375 0.375 0
0.125 0.375 0
0.125 0.25 0
0.15625 0.25 0
0.125 0.28125 0
0.15625 0.28125 0
0.15625 0.25 0
0.1875 0.25 0
0.15625 0.28125 0
0.1875 0.28125 0
0.125 0.28125 0
0.15625 0.28125 0
0.125 0.3125 0
0.15625 0.3125 0
0.15625 0.28125 0
0.1875 0.28125 0
0.15625 0.3125 0
0.1875 0.3125 0
0.1875 0.25 0
0.21875 0.25 0
0.1875 0.28125 0
0.21875 0.28125 0
0.21875 0.25 0
0.25 0.25 0
0.21875 0.28125 0
0.25 0.28125 0
0.1875 0.28125 0
0.21875 0.28125 0
0.1875 0.3125 0
0.21875 0.3125 0
0.21875 0.28125 0
0.25 0.28125 0
0.21875 0.3125 0
0.25 0.3125 0
0.125 0.3125 0
0.15625 0.3125 0
0.125 0.34375 0
0.15625 0.34375 0
0.15625 0.3125 0
0.1875 0.3125 0
0.15625 0.34375 0
0.1875 0.34375 0
0.125 0.34375 0
0.15625 0.34375 0
0.125 0.375 0
0.15625 0.375 0
0.15625 0.34375 0
0.1875 0.34375 0
0.15625 0.375 0
0.1875 0.375 0
0.1875 0.3125 0
0.21875 0.3125 0
0.1875 0.34375 0
0.21875 0.34375 0
0.21875 0.3125 0
0.25 0.3125 0
0.21875 0.34375 0
0.25 0.34375 0
0.1875 0.34375 0
0.21875 0.34375 0
0.1875 0.375 0
0.21875 0.375 0
0.21875 0.34375 0
0.25 0.34375 0
0.21875 0.375 0
0.25 0.375 0
0 0.375 0
0.03125 0.375 0
0 0.40625 0
0.03125 0.40625 0
0.03125 0.375 0
0.0625 0.375 0
0.03125 0.40625 0
0.0625 0.40625 0
0 0.40625 0
0.03125 0.40625 0
0 0.4375 0
0.03125 0.4375 0
0.03125 0.40625 0
0.0625 0.40625 0
0.03125 0.4375 0
0.0625 0.4375 0
0.0625 0.375 0
0.09375 0.375 0
0.0625 0.40625 0
0.09375 0.40625 0
0.09375 0.375 0
0.125 0.375 0
0.09375 0.40625 0
0.125 0.40625 0
0.0625 0.40625 0
0.09375 0.40625 0
0.0625 0.4375 0
0.09375 0.4375 0
0.09375 0.40625 0
0.125 0.40625 0
0.09375 0.4375 0
0.125 0.4375 0
0 0.4375 0
0.03125 0.4375 0
0 0.46875 0
0.03125 0.46875 0
0.03125 0.4375 0
0.0625 0.4375 0
0.03125 0.46875 0
0.0625 0.46875 0
0 0.46875 0
0.03125 0.46875 0
0 0.5 0
0.03125 0.5 0
0.03125 0.46875 0
0.0625 0.46875 0
0.03125 0.5 0
0.0625 0.5 0
0.0625 0.4375 0
0.09375 0.4375 0
0.0625 0.46875 0
0.09375 0.46875 0
0.09375 0.4375 0
0.125 0.4375 0
0.09375 0.46875 0
0.125 0.46875 0
0.0625 0.46875 0
0.09375 0.46875 0
0.0625 0.5 0
0.09375 0.5 0
0.09375 0.46875 0
0.125 0.46875 0
0.09375 0.5 0
0.125 0.5 0
0.125 0.375 0
0.15625 0.375 0
0.125 0.40625 0
0.15625 0.40625 0
0.15625 0.375 0
0.1875 0.375 0
0.15625 0.40625 0
0.1875 0.40625 0
0.125 0.40625 0
0.15625 0.40625 0
0.125 0.4375 0
0.15625 0.4375 0
0.15625 0.40625 0
0.1875 0.40625 0
0.15625 0.4375 0
0.1875 0.4375 0
0.1875 0.375 0
0.21875 0.375 0
0.1875 0.40625 0
0.21875 0.40625 0
0.21875 0.375 0
0.25 0.375 0
0.21875 0.40625 0
0.25 0.40625 0
0.1875 0.40625 0
0.21875 0.40625 0
0.1875 0.4375 0
0.21875 0.4375 0
0.21875 0.40625 0
0.25 0.40625 0
0.21875 0.4375 0
0.25 0.4375 0
0.125 0.4375 0
0.15625 0.4375 0
0.125 0.46875 0
0.15625 0.46875 0
0.15625 0.4375 0
0.1875 0.4375 0
0.15625 0.46875 0
0.1875 0.46875 0
0.125 0.46875 0
0.15625 0.46875 0
0.125 0.5 0
0.15625 0.5 0
0.15625 0.46875 0
0.1875 0.46875 0
0.15625 0.5 0
0.1875 0.5 0
0.1875 0.4375 0
0.21875 0.4375 0
0.1875 0.46875 0
0.21875 0.46875 0
0.21875 0.4375 0
0.25 0.4375 0
0.21875 0.46875 0
0.25 0.46875 0
0.1875 0.46875 0
0.21875 0.46875 0
0.1875 0.5 0
0.21875 0.5 0
0.21875 0.46875 0
0.25 0.46875 0
0.21875 0.5 0
0.25 0.5 0
0.25 0.25 0
0.28125 0.25 0
0.25 0.28125 0
0.28125 0.28125 0
0.28125 0.25 0
0.3125 0.25 0
0.28125 0.28125 0
0.3125 0.28125 0
0.25 0.28125 0
0.28125 0.28125 0
0.25 0.3125 0
0.28125 0.3125 0
0.28125 0.28125 0
0.3125 0.28125 0
0.28125 0.3125 0
0.3125 0.3125 0
0.3125 0.25 0
0.34375 0.25 0
0.3125 0.28125 0
0.34375 0.28125 0
0.34375 0.25 0
0.375 0.25 0
0.34375 0.28125 0
0.375 0.28125 0
0.3125 0.28125 0
0.34375 0.28125 0
0.3125 0.3125 0
0.34375 0.3125 0
0.34375 0.28125 0
0.375 0.28125 0
0.34375 0.3125 0
0.375 0.3125 0
0.25 0.3125 0
0.28125 0.3125 0
0.25 0.34375 0
0.28125 0.34375 0
0.28125 0.3125 0
0.3125 0.3125 0
0.28125 0.34375 0
0.3125 0.34375 0
0.25 0.34375 0
0.28125 0.34375 0
0.25 0.375 0
0.28125 0.375 0
0.28125 0.34375 0
0.3125 0.34375 0
0.28125 0.375 0
0.3125 0.375 0
0.3125 0.3125 0
0.34375 0.3125 0
0.3125 0.34375 0
0.34375 0.34375 0
0.34375 0.3125 0
0.375 0.3125 0
0.34375 0.34375 0
0.375 0.34375 0
0.3125 0.34375 0
0.34375 0.34375 0
0.3125 0.375 0
0.34375 0.375 0
0.34375 0.34375 0
0.375 0.34375 0
0.34375 0.375 0
0.375 0.375 0
0.375 0.25 0
0.40625 0.25 0
0.375 0.28125 0
0.40625 0.28125 0
0.40625 0.25 0
0.4375 0.25 0
0.40625 0.28125 0
0.4375 0.28125 0
0.375 0.28125 0
0.40625 0.28125 0
0.375 0.3125 0
0.40625 0.3125 0
0.40625 0.28125 0
0.4375 0.28125 0
0.40625 0.3125 0
0.4375 0.3125 0
0.4375 0.25 0
0.46875 0.25 0
0.4375 0.28125 0
0.46875 0.28125 0
0.46875 0.25 0
0.5 0.25 0
0.46875 0.28125 0
0.5 0.28125 0
0.4375 0.28125 0
0.46875 0.28125 0
0.4375 0.3125 0
0.46875 0.3125 0
0.46875 0.28125 0
0.5 0.28125 0
0.46875 0.3125 0
0.5 0.3125 0
0.375 0.3125 0
0.40625 0.3125 0
0.375 0.34375 0
0.40625 0.34375 0
0.40625 0.3125 0
0.4375 0.3125 0
0.40625 0.34375 0
0.4375 0.34375 0
0.375 0.34375 0
0.40625 0.34375 0
0.375 0.375 0
0.40625 0.375 0
0.40625 0.34375 0
0.4375 0.34375 0
0.40625 0.375 0
0.4375 0.375 0
0.4375 0.3125 0
0.46875 0.3125 0
0.4375 0.34375 0
0.46875 0.34375 0
0.46875 0.3125 0
0.5 0.3125 0
0.46875 0.34375 0
0.5 0.34375 0
0.4375 0.34375 0
0.46875 0.34375 0
0.4375 0.375 0
0.46875 0.375 0
0.46875 0.34375 0
0.5 0.34375 0
0.46875 0.375 0
0.5 0.375 0
0.25 0.375 0
0.28125 0.375 0
0.25 0.40625 0
0.28125 0.40625 0
0.28125 0.375 0
0.3125 0.375 0
0.28125 0.40625 0
0.3125 0.40625 0
0.25 0.40625 0
0.28125 0.40625 0
0.25 0.4375 0
0.28125 0.4375 0
0.28125 0.40625 0
0.3125 0.40625 0
0.28125 0.4375 0
0.3125 0.4375 0
0.3125 0.375 0
0.34375 0.375 0
0.3125 0.40625 0
0.34375 0.40625 0
0.34375 0.375 0
0.375 0.375 0
0.34375 0.40625 0
0.375 0.40625 0
0.3125 0.40625 0
0.34375 0.40625 0
0.3125 0.4375 0
0.34375 0.4375 0
0.34375 0.40625 0
0.375 0.40625 0
0.34375 0.4375 0
0.375 0.4375 0
0.25 0.4375 0
0.28125 0.4375 0
0.25 0.46875 0
0.28125 0.46875 0
0.28125 0.4375 0
0.3125 0.4375 0
0.28125 0.46875 0
0.3125 0.46875 0
0.25 0.46875 0
0.28125 0.46875 0
0.25 0.5 0
0.28125 0.5 0
0.28125 0.46875 0
0.3125 0.46875 0
0.28125 0.5 0
0.3125 0.5 0
0.3125 0.4375 0
0.34375 0.4375 0
0.3125 0.46875 0
0.34375 0.46875 0
0.34375 0.4375 0
0.375 0.4375 0
0.34375 0.46875 0
0.375 0.46875 0
0.3125 0.46875 0
0.34375 0.46875 0
0.3125 0.5 0
0.34375 0.5 0
0.34375 0.46875 0
0.375 0.46875 0
0.34375 0.5 0
0.375 0.5 0
0.375 0.375 0
0.40625 0.375 0
0.375 0.40625 0
0.40625 0.40625 0
0.40625 0.375 0
0.4375 0.375 0
0.40625 0.40625 0
0.4375 0.40625 0
0.375 0.40625 0
0.40625 0.40625 0
0.375 0.4375 0
0.40625 0.4375 0
0.40625 0.40625 0
0.4375 0.40625 0
0.40625 0.4375 0
0.4375 0.4375 0
0.4375 0.375 0
0.46875 0.375 0
0.4375 0.40625 0
0.46875 0.40625 0
0.46875 0.375 0
0.5 0.375 0
0.46875 0.40625 0
0.5 0.40625 0
0.4375 0.40625 0
0.46875 0.40625 0
0.4375 0.4375 0
0.46875 0.4375 0
0.46875 0.40625 0
0.5 0.40625 0
0.46875 0.4375 0
0.5 0.4375 0
0.375 0.4375 0
0.40625 0.4375 0
0.375 0.46875 0
0.40625 0.46875 0
0.40625 0.4375 0
0.4375 0.4375 0
0.40625 0.46875 0
0.4375 0.46875 0
0.375 0.46875 0
0.40625 0.46875 0
0.375 0.5 0
0.40625 0.5 0
0.40625 0.46875 0
0.4375 0.46875 0
0.40625 0.5 0
0.4375 0.5 0
0.4375 0.4375 0
0.46875 0.4375 0
0.4375 0.46875 0
0.46875 0.46875 0
0.46875 0.4375 0
0.5 0.4375 0
0.46875 0.46875 0
0.5 0.46875 0
0.4375 0.46875 0
0.46875 0.46875 0
0.4375 0.5 0
0.46875 0.5 0
0.46875 0.46875 0
0.5 0.46875 0
0.46875 0.5 0
0.5 0.5 0
0.5 0 0
0.53125 0 0
0.5 0.03125 0
0.53125 0.03125 0
0.53125 0 0
0.5625 0 0
0.53125 0.03125 0
0.5625 0.03125 0
0.5 0.03125 0
0.53125 0.03125 0
0.5 0.0625 0
0.53125 0.0625 0
0.53125 0.03125 0
0.5625 0.03125 0
0.53125 0.0625 0
0.5625 0.0625 0
0.5625 0 0
0.59375 0 0
0.5625 0.03125 0
0.59375 0.03125 0
0.59375 0 0
0.625 0 0
0.59375 0.03125 0
0.625 0.03125 0
0.5625 0.03125 0
0.59375 0.03125 0
0.5625 0.0625 0
0.59375 0.0625 0
0.59375 0.03125 0
0.625 0.03125 0
0.59375 0.0625 0
0.625 0.0625 0
0.5 0.0625 0
0.53125 0.0625 0
0.5 0.09375 0
0.53125 0.09375 0
0.53125 0.0625 0
0.5625 0.0625 0
0.53125 0.09375 0
0.5625 0.09375 0
0.5 0.09375 0
0.53125 0.09375 0
0.5 0.125 0
0.53125 0.125 0
0.53125 0.09375 0
0.5625 0.09375 0
0.53125 0.125 0
0.5625 0.125 0
0.5625 0.0625 0
0.59375 0.0625 0
0.5625 0.09375 0
0.59375 0.09375 0
0.59375 0.0625 0
0.625 0.0625 0
0.59375 0.09375 0
0.625 0.09375 0
0.5625 0.09375 0
0.59375 0.09375 0
0.5625 0.125 0
0.59375 0.125 0
0.59375 0.09375 0
0.625 0.09375 0
0.59375 0.125 0
0.625 0.125 0
0.625 0 0
0.65625 0 0
0.625 0.03125 0
0.65625 0.03125 0
0.65625 0 0
0.6875 0 0
0.65625 0.03125 0
0.6875 0.03125 0
0.625 0.03125 0
0.65625 0.03125 0
0.625 0.0625 0
0.65625 0.0625 0
0.65625 0.03125 0
0.6875 0.03125 0
0.65625 0.0625 0
0.6875 0.0625 0
0.6875 0 0
0.71875 0 0
0.6875 0.03125 0
0.71875 0.03125 0
0.71875 0 0
0.75 0 0
0.71875 0.03125 0
0.75 0.03125 0
0.6875 0.03125 0
0.71875 0.03125 0
0.6875 0.0625 0
0.71875 0.0625 0
0.71875 0.03125 0
0.75 0.03125 0
0.71875 0.0625 0
0.75 0.0625 0
0.625 0.0625 0
0.65625 0.0625 0
0.625 0.09375 0
0.65625 0.09375 0
0.65625 0.0625 0
0.6875 0.0625 0
0.65625 0.09375 0
0.6875 0.09375 0
0.625 0.09375 0
0.65625 0.09375 0
0.625 0.125 0
0.65625 0.125 0
0.65625 0.09375 0
0.6875 0.09375 0
0.65625 0.125 0
0.6875 0.125 0
0.6875 0.0625 0
0.71875 0.0625 0
0.6875 0.09375 0
0.71875 0.09375 0
0.71875 0.0625 0
0.75 0.0625 0
0.71875 0.09375 0
0.75 0.09375 0
0.6875 0.09375 0
0.71875 0.09375 0
0.6875 0.125 0
0.71875 0.125 0
0.71875 0.09375 0
0.75 0.09375 0
0.71875 0.125 0
0.75 0.125 0
0.5 0.125 0
0.53125 0.125 0
0.5 0.15625 0
0.53125 0.15625 0
0.53125 0.125 0
0.5625 0.125 0
0.53125 0.15625 0
0.5625 0.15625 0
0.5 0.15625 0
0.53125 0.15625 0
0.5 0.1875 0
0.53125 0.1875 0
0.53125 0.15625 0
0.5625 0.15625 0
0.53125 0.1875 0
0.5625 0.1875 0
0.5625 0.125 0
0.59375 0.125 0
0.5625 0.15625 0
0.59375 0.15625 0
0.59375 0.125 0
0.625 0.125 0
0.59375 0.15625 0
0.625 0.15625 0
0.5625 0.15625 0
0.59375 0.15625 0
0.5625 0.1875 0
0.59375 0.1875 0
0.59375 0.15625 0
0.625 0.15625 0
0.59375 0.1875 0
0.625 0.1875 0
0.5 0.1875 0
0.53125 0.1875 0
0.5 0.21875 0
0.53125 0.21875 0
0.53125 0.1875 0
0.5625 0.1875 0
0.53125 0.21875 0
0.5625 0.21875 0
0.5 0.21875 0
0.53125 0.21875 0
0.5 0.25 0
0.53125 0.25 0
0.53125 0.21875 0
0.5625 0.21875 0
0.53125 0.25 0
0.5625 0.25 0
0.5625 0.1875 0
0.59375 0.1875 0
0.5625 0.21875 0
0.59375 0.21875 0
0.59375 0.1875 0
0.625 0.1875 0
0.59375 0.21875 0
0.625 0.21875 0
0.5625 0.21875 0
0.59375 0.21875 0
0.5625 0.25 0
0.59375 0.25 0
0.59375 0.21875 0
0.625 0.21875 0
0.59375 0.25 0
0.625 0.25 0
0.625 0.125 0
0.65625 0.125 0
0.625 0.15625 0
0.65625 0.15625 0
0.65625 0.125 0
0.6875 0.125 0
0.65625 0.15625 0
0.6875 0.15625 0
0.625 0.15625 0
0.65625 0.15625 0
0.625 0.1875 0
0.65625 0.1875 0
0.65625 0.15625 0
0.6875 0.15625 0
0.65625 0.1875 0
0.6875 0.1875 0
0.6875 0.125 0
0.71875 0.125 0
0.6875 0.15625 0
0.71875 0.15625 0
0.71875 0.125 0
0.75 0.125 0
0.71875 0.15625 0
0.75 0.15625 0
0.6875 0.15625 0
0.71875 0.15625 0
0.6875 0.1875 0
0.71875 0.1875 0
0.71875 0.15625 0
0.75 0.15625 0
0.71875 0.1875 0
0.75 0.1875 0
0.625 0.1875 0
0.65625 0.1875 0
0.625 0.21875 0
0.65625 0.21875 0
0.65625 0.1875 0
0.6875 0.1875 0
0.65625 0.21875 0
0.6875 0.21875 0
0.625 0.21875 0
0.65625 0.21875 0
0.625 0.25 0
0.65625 0.25 0
0.65625 0.21875 0
0.6875 0.21875 0
0.65625 0.25 0
0.6875 0.25 0
0.6875 0.1875 0
0.71875 0.1875 0
0.6875 0.21875 0
0.71875 0.21875 0
0.71875 0.1875 0
0.75 0.1875 0
0.71875 0.21875 0
0.75 0.21875 0
0.6875 0.21875 0
0.71875 0.21875 0
0.6875 0.25 0
0.71875 0.25 0
0.71875 0.21875 0
0.75 0.21875 0
0.71875 0.25 0
0.75 0.25 0
0.75 0 0
0.78125 0 0
0.75 0.03125 0
0.78125 0.03125 0
0.78125 0 0
0.8125 0 0
0.78125 0.03125 0
0.8125 0.03125 0
0.75 0.03125 0
0.78125 0.03125 0
0.75 0.0625 0
0.78125 0.0625 0
0.78125 0.03125 0
0.8125 0.03125 0
0.78125 0.0625 0
0.8125 0.0625 0
0.8125 0 0
0.84375 0 0
0.8125 0.03125 0
0.84375 0.03125 0
0.84375 0 0
0.875 0 0
0.84375 0.03125 0
0.875 0.03125 0
0.8125 0.03125 0
0.84375 0.03125 0
0.8125 0.0625 0
0.84375 0.0625 0
0.84375 0.03125 0
0.875 0.03125 0
0.84375 0.0625 0
0.875 0.0625 0
0.75 0.0625 0
0.78125 0.0625 0
0.75 0.09375 0
0.78125 0.09375 0
0.78125 0.0625 0
0.8125 0.0625 0
0.78125 0.09375 0
0.8125 0.09375 0
0.75 0.09375 0
0.78125 0.09375 0
0.75 0.125 0
0.78125 0.125 0
0.78125 0.09375 0
0.8125 0.09375 0
0.78125 0.125 0
0.8125 0.125 0
0.8125 0.0625 0
0.84375 0.0625 0
0.8125 0.09375 0
0.84375 0.09375 0
0.84375 0.0625 0
0.875 0.0625 0
0.84375 0.09375 0
0.875 0.09375 0
0.8125 0.09375 0
0.84375 0.09375 0
0.8125 0.125 0
0.84375 0.125 0
0.84375 0.09375 0
0.875 0.09375 0
0.84375 0.125 0
0.875 0.125 0
0.875 0 0
0.90625 0 0
0.875 0.03125 0
0.90625 0.03125 0
0.90625 0 0
0.9375 0 0
0.90625 0.03125 0
0.9375 0.03125 0
0.875 0.03125 0
0.90625 0.03125 0
0.875 0.0625 0
0.90625 0.0625 0
0.90625 0.03125 0
0.9375 0.03125 0
0.90625 0.0625 0
0.9375 0.0625 0
0.9375 0 0
0.96875 0 0
0.9375 0.03125 0
0.96875 0.03125 0
0.96875 0 0
1 0 0
0.96875 0.03125 0
1 0.03125 0
0.9375 0.03125 0
0.96875 0.03125 0
0.9375 0.0625 0
0.96875 0.0625 0
0.96875 0.03125 0
1 0.03125 0
0.96875 0.0625 0
1 0.0625 0
0.875 0.0625 0
0.90625 0.0625 0
0.875 0.09375 0
0.90625 0.09375 0
0.90625 0.0625 0
0.9375 0.0625 0
0.90625 0.09375 0
0.9375 0.09375 0
0.875 0.09375 0
0.90625 0.09375 0
0.875 0.125 0
0.90625 0.125 0
0.90625 0.09375 0
0.9375 0.09375 0
0.90625 0.125 0
0.9375 0.125 0
0.9375 0.0625 0
0.96875 0.0625 0
0.9375 0.09375 0
0.96875 0.09375 0
0.96875 0.0625 0
1 0.0625 0
0.96875 0.09375 0
1 0.09375 0
0.9375 0.09375 0
0.96875 0.09375 0
0.9375 0.125 0
0.96875 0.125 0
0.96875 0.09375 0
1 0.09375 0
0.96875 0.125 0
1 0.125 0
0.75 0.125 0
0.78125 0.125 0
0.75 0.15625 0
0.78125 0.15625 0
0.78125 0.125 0
0.8125 0.125 0
0.78125 0.15625 0
0.8125 0.15625 0
0.75 0.15625 0
0.78125 0.15625 0
0.75 0.1875 0
0.78125 0.1875 0
0.78125 0.15625 0
0.8125 0.15625 0
0.78125 0.1875 0
0.8125 0.1875 0
0.8125 0.125 0
0.84375 0.125 0
0.8125 0.15625 0
0.84375 0.15625 0
0.84375 0.125 0
0.875 0.125 0
0.84375 0.15625 0
0.875 0.15625 0
0.8125 0.15625 0
0.84375 0.15625 0
0.8125 0.1875 0
0.84375 0.1875 0
0.84375 0.15625 0
0.875 0.15625 0
0.84375 0.1875 0
0.875 0.1875 0
0.75 0.1875 0
0.78125 0.1875 0
0.75 0.21875 0
0.78125 0.21875 0
0.78125 0.1875 0
0.8125 0.1875 0
0.78125 0.21875 0
0.8125 0.21875 0
0.75 0.21875 0
0.78125 0.21875 0
0.75 0.25 0
0.78125 0.25 0
0.78125 0.21875 0
0.8125 0.21875 0
0.78125 0.25 0
0.8125 0.25 0
0.8125 0.1875 0
0.84375 0.1875 0
0.8125 0.21875 0
0.84375 0.21875 0
0.84375 0.1875 0
0.875 0.1875 0
0.84375 0.21875 0
0.875 0.21875 0
0.8125 0.21875 0
0.84375 0.21875 0
0.8125 0.25 0
0.84375 0.25 0
0.84375 0.21875 0
0.875 0.21875 0
0.84375 0.25 0
0.875 0.25 0
0.875 0.125 0
0.90625 0.125 0
0.875 0.15625 0
0.90625 0.15625 0
0.90625 0.125 0
0.9375 0.125 0
0.90625 0.15625 0
0.9375 0.15625 0
0.875 0.15625 0
0.90625 0.15625 0
0.875 0.1875 0
0.90625 0.1875 0
0.90625 0.15625 0
0.9375 0.15625 0
0.90625 0.1875 0
0.9375 0.1875 0
0.9375 0.125 0
0.96875 0.125 0
0.9375 0.15625 0
0.96875 0.15625 0
0.96875 0.125 0
1 0.125 0
0.96875 0.15625 0
1 0.15625 0
0.9375 0.15625 0
0.96875 0.15625 0
0.9375 0.1875 0
0.96875 0.1875 0
0.96875 0.15625 0
1 0.15625 0
0.96875 0.1875 0
1 0.1875 0
0.875 0.1875 0
0.90625 0.1875 0
0.875 0.21875 0
0.90625 0.21875 0
0.90625 0.1875 0
0.9375 0.1875 0
0.90625 0.21875 0
0.9375 0.21875 0
0.875 0.21875 0
0.90625 0.21875 0
0.875 0.25 0
0.90625 0.25 0
0.90625 0.21875 0
0.9375 0.21875 0
0.90625 0.25 0
0.9375 0.25 0
0.9375 0.1875 0
0.96875 0.1875 0
0.9375 0.21875 0
0.96875 0.21875 0
0.96875 0.1875 0
1 0.1875 0
0.96875 0.21875 0
1 0.21875 0
0.9375 0.21875 0
0.96875 0.21875 0
0.9375 0.25 0
0.96875 0.25 0
0.96875 0.21875 0
1 0.21875 0
0.96875 0.25 0
1 0.25 0
0.5 0.25 0
0.53125 0.25 0
0.5 0.28125 0
0.53125 0.28125 0
0.53125 0.25 0
0.5625 0.25 0
0.53125 0.28125 0
0.5625 0.28125 0
0.5 0.28125 0
0.53125 0.28125 0
0.5 0.3125 0
0.53125 0.3125 0
0.53125 0.28125 0
0.5625 0.28125 0
0.53125 0.3125 0
0.5625 0.3125 0
0.5625 0.25 0
0.59375 0.25 0
0.5625 0.28125 0
0.59375 0.28125 0
0.59375 0.25 0
0.625 0.25 0
0.59375 0.28125 0
0.625 0.28125 0
0.5625 0.28125 0
0.59375 0.28125 0
0.5625 0.3125 0
0.59375 0.3125 0
0.59375 0.28125 0
0.625 0.28125 0
0.59375 0.3125 0
0.625 0.3125 0
0.5 0.3125 0
0.53125 0.3125 0
0.5 0.34375 0
0.53125 0.34375 0
0.53125 0.3125 0
0.5625 0.3125 0
0.53125 0.34375 0
0.5625 0.34375 0
0.5 0.34375 0
0.53125 0.34375 0
0.5 0.375 0
0.53125 0.375 0
0.53125 0.34375 0
0.5625 0.34375 0
0.53125 0.375 0
0.5625 0.375 0
0.5625 0.3125 0
0.59375 0.3125 0
0.5625 0.34375 0
0.59375 0.34375 0
0.59375 0.3125 0
0.625 0.3125 0
0.59375 0.34375 0
0.625 0.34375 0
0.5625 0.34375 0
0.59375 0.34375 0
0.5625 0.375 0
0.59375 0.375 0
0.59375 0.34375 0
0.625 0.34375 0
0.59375 0.375 0
0.625 0.375 0
0.625 0.25 0
0.65625 0.25 0
0.625 0.28125 0
0.65625 0.28125 0
0.65625 0.25 0
0.6875 0.25 0
0.65625 0.28125 0
0.6875 0.28125 0
0.625 0.28125 0
0.65625 0.28125 0
0.625 0.3125 0
0.65625 0.3125 0
0.65625 0.28125 0
0.6875 0.28125 0
0.65625 0.3125 0
0.6875 0.3125 0
0.6875 0.25 0
0.71875 0.25 0
0.6875 0.28125 0
0.71875 0.28125 0
0.71875 0.25 0
0.75 0.25 0
0.71875 0.28125 0
0.75 0.28125 0
0.6875 0.28125 0
0.71875 0.28125 0
0.6875 0.3125 0
0.71875 0.3125 0
0.71875 0.28125 0
0.75 0.28125 0
0.71875 0.3125 0
0.75 0.3125 0
0.625 0.3125 0
0.65625 0.3125 0
0.625 0.34375 0
0.65625 0.34375 0
0.65625 0.3125 0
0.6875 0.3125 0
0.65625 0.34375 0
0.6875 0.34375 0
0.625 0.34375 0
0.65625 0.34375 0
0.625 0.375 0
0.65625 0.375 0
0.65625 0.34375 0
0.6875 0.34375 0
0.65625 0.375 0
0.6875 0.375 0
0.6875 0.3125 0
0.71875 0.3125 0
0.6875 0.34375 0
0.71875 0.34375 0
0.71875 0.3125 0
0.75 0.3125 0
0.71875 0.34375 0
0.75 0.34375 0
0.6875 0.34375 0
0.71875 0.34375 0
0.6875 0.375 0
0.71875 0.375 0
0.71875 0.34375 0
0.75 0.34375 0
0.71875 0.375 0
0.75 0.375 0
0.5 0.375 0
0.53125 0.375 0
0.5 0.40625 0
0.53125 0.40625 0
0.53125 0.375 0
0.5625 0.375 0
0.53125 0.40625 0
0.5625 0.40625 0
0.5 0.40625 0
0.53125 0.40625 0
0.5 0.4375 0
0.53125 0.4375 0
0.53125 0.40625 0
0.5625 0.40625 0
0.53125 0.4375 0
0.5625 0.4375 0
0.5625 0.375 0
0.59375 0.375 0
0.5625 0.40625 0
0.59375 0.40625 0
0.59375 0.375 0
0.625 0.375 0
0.59375 0.40625 0
0.625 0.40625 0
0.5625 0.40625 0
0.59375 0.40625 0
0.5625 0.4375 0
0.59375 0.4375 0
0.59375 0.40625 0
0.625 0.40625 0
0.59375 0.4375 0
0.625 0.4375 0
0.5 0.4375 0
0.53125 0.4375 0
0.5 0.46875 0
0.53125 0.46875 0
0.53125 0.4375 0
0.5625 0.4375 0
0.53125 0.46875 0
0.5625 0.46875 0
0.5 0.46875 0
0.53125 0.46875 0
0.5 0.5 0
0.53125 0.5 0
0.53125 0.46875 0
0.5625 0.46875 0
0.53125 0.5 0
0.5625 0.5 0
0.5625 0.4375 0
0.59375 0.4375 0
0.5625 0.46875 0
0.59375 0.46875 0
0.59375 0.4375 0
0.625 0.4375 0
0.59375 0.46875 0
0.625 0.46875 0
0.5625 0.46875 0
0.59375 0.46875 0
0.5625 0.5 0
0.59375 0.5 0
0.59375 0.46875 0
0.625 0.46875 0
0.59375 0.5 0
0.625 0.5 0
0.625 0.375 0
0.65625 0.375 0
0.625 0.40625 0
0.65625 0.40625 0
0.65625 0.375 0
0.6875 0.375 0
0.65625 0.40625 0
0.6875 0.40625 0
0.625 0.40625 0
0.65625 0.40625 0
0.625 0.4375 0
0.65625 0.4375 0
0.65625 0.40625 0
0.6875 0.40625 0
0.65625 0.4375 0
0.6875 0.4375 0
0.6875 0.375 0
0.71875 0.375 0
0.6875 0.40625 0
0.71875 0.40625 0
0.71875 0.375 0
0.75 0.375 0
0.71875 0.40625 0
0.75 0.40625 0
0.6875 0.40625 0
0.71875 0.40625 0
0.6875 0.4375 0
0.71875 0.4375 0
0.71875 0.40625 0
0.75 0.40625 0
0.71875 0.4375 0
0.75 0.4375 0
0.625 0.4375 0
0.65625 0.4375 0
0.625 0.46875 0
0.65625 0.46875 0
0.65625 0.4375 0
0.6875 0.4375 0
0.65625 0.46875 0
0.6875 0.46875 0
0.625 0.46875 0
0.65625 0.46875 0
0.625 0.5 0
0.65625 0.5 0
0.65625 0.46875 0
0.6875 0.46875 0
0.65625 0.5 0
0.6875 0.5 0
0.6875 0.4375 0
0.71875 0.4375 0
0.6875 0.46875 0
0.71875 0.46875 0
0.71875 0.4375 0
0.75 0.4375 0
0.71875 0.46875 0
0.75 0.46875 0
0.6875 0.46875 0
0.71875 0.46875 0
0.6875 0.5 0
0.71875 0.5 0
0.71875 0.46875 0
0.75 0.46875 0
0.71875 0.5 0
0.75 0.5 0
0.75 0.25 0
0.78125 0.25 0
0.75 0.28125 0
0.78125 0.28125 0
0.78125 0.25 0
0.8125 0.25 0
0.78125 0.28125 0
0.8125 0.28125 0
0.75 0.28125 0
0.78125 0.28125 0
0.75 0.3125 0
0.78125 0.3125 0
0.78125 0.28125 0
0.8125 0.28125 0
0.78125 0.3125 0
0.8125 0.3125 0
0.8125 0.25 0
0.84375 0.25 0
0.8125 0.28125 0
0.84375 0.28125 0
0.84375 0.25 0
0.875 0.25 0
0.84375 0.28125 0
0.875 0.28125 0
0.8125 0.28125 0
0.84375 0.28125 0
0.8125 0.3125 0
0.84375 0.3125 0
0.84375 0.28125 0
0.875 0.28125 0
0.84375 0.3125 0
0.875 0.3125 0
0.75 0.3125 0
0.78125 0.3125 0
0.75 0.34375 0
0.78125 0.34375 0
0.78125 0.3125 0
0.8125 0.3125 0
0.78125 0.34375 0
0.8125 0.34375 0
0.75 0.34375 0
0.78125 0.34375 0
0.75 0.375 0
0.78125 0.375 0
0.78125 0.34375 0
0.8125 0.34375 0
0.78125 0.375 0
0.8125 0.375 0
0.8125 0.3125 0
0.84375 0.3125 0
0.8125 0.34375 0
0.84375 0.34375 0
0.84375 0.3125 0
0.875 0.3125 0
0.84375 0.34375 0
0.875 0.34375 0
0.8125 0.34375 0
0.84375 0.34375 0
0.8125 0.375 0
0.84375 0.375 0
0.84375 0.34375 0
0.875 0.34375 0
0.84375 0.375 0
0.875 0.375 0
0.875 0.25 0
0.90625 0.25 0
0.875 0.28125 0
0.90625 0.28125 0
0.90625 0.25 0
0.9375 0.25 0
0.90625 0.28125 0
0.9375 0.28125 0
0.875 0.28125 0
0.90625 0.28125 0
0.875 0.3125 0
0.90625 0.3125 0
0.90625 0.28125 0
0.9375 0.28125 0
0.90625 0.3125 0
0.9375 0.3125 0
0.9375 0.25 0
0.96875 0.25 0
0.9375 0.28125 0
0.96875 0.28125 0
0.96875 0.25 0
1 0.25 0
0.96875 0.28125 0
1 0.28125 0
0.9375 0.28125 0
0.96875 0.28125 0
0.9375 0.3125 0
0.96875 0.3125 0
0.96875 0.28125 0
1 0.28125 0
0.96875 0.3125 0
1 0.3125 0
0.875 0.3125 0
0.90625 0.3125 0
0.875 0.34375 0
0.90625 0.34375 0
0.90625 0.3125 0
0.9375 0.3125 0
0.90625 0.34375 0
0.9375 0.34375 0
0.875 0.34375 0
0.90625 0.34375 0
0.875 0.375 0
0.90625 0.375 0
0.90625 0.34375 0
0.9375 0.34375 0
0.90625 0.375 0
0.9375 0.375 0
0.9375 0.3125 0
0.96875 0.3125 0
0.9375 0.34375 0
0.96875 0.34375 0
0.96875 0.3125 0
1 0.3125 0
0.96875 0.34375 0
1 0.34375 0
0.9375 0.34375 0
0.96875 0.34375 0
0.9375 0.375 0
0.96875 0.375 0
0.96875 0.34375 0
1 0.34375 0
0.96875 0.375 0
1 0.375 0
0.75 0.375 0
0.78125 0.375 0
0.75 0.40625 0
0.78125 0.40625 0
0.78125 0.375 0
0.8125 0.375 0
0.78125 0.40625 0
0.8125 0.40625 0
0.75 0.40625 0
0.78125 0.40625 0
0.75 0.4375 0
0.78125 0.4375 0
0.78125 0.40625 0
0.8125 0.40625 0
0.78125 0.4375 0
0.8125 0.4375 0
0.8125 0.375 0
0.84375 0.375 0
0.8125 0.40625 0
0.84375 0.40625 0
0.84375 0.375 0
0.875 0.375 0
0.84375 0.40625 0
0.875 0.40625 0
0.8125 0.40625 0
0.84375 0.40625 0
0.8125 0.4375 0
0.84375 0.4375 0
0.84375 0.40625 0
0.875 0.40625 0
0.84375 0.4375 0
0.875 0.4375 0
0.75 0.4375 0
0.78125 0.4375 0
0.75 0.46875 0
0.78125 0.46875 0
0.78125 0.4375 0
0.8125 0.4375 0
0.78125 0.46875 0
0.8125 0.46875 0
0.75 0.46875 0
0.78125 0.46875 0
0.75 0.5 0
0.78125 0.5 0
0.78125 0.46875 0
0.8125 0.46875 0
0.78125 0.5 0
0.8125 0.5 0
0.8125 0.4375 0
0.84375 0.4375 0
0.8125 0.46875 0
0.84375 0.46875 0
0.84375 0.4375 0
0.875 0.4375 0
0.84375 0.46875 0
0.875 0.46875 0
0.8125 0.46875 0
0.84375 0.46875 0
0.8125 0.5 0
0.84375 0.5 0
0.84375 0.46875 0
0.875 0.46875 0
0.84375 0.5 0
0.875 0.5 0
0.875 0.375 0
0.90625 0.375 0
0.875 0.40625 0
0.90625 0.40625 0
0.90625 0.375 0
0.9375 0.375 0
0.90625 0.40625 0
0.9375 0.40625 0
0.875 0.40625 0
0.90625 0.40625 0
0.875 0.4375 0
0.90625 0.4375 0
0.90625 0.40625 0
0.9375 0.40625 0
0.90625 0.4375 0
0.9375 0.4375 0
0.9375 0.375 0
0.96875 0.375 0
0.9375 0.40625 0
0.96875 0.40625 0
0.96875 0.375 0
1 0.375 0
0.96875 0.40625 0
1 0.40625 0
0.9375 0.40625 0
0.96875 0.40625 0
0.9375 0.4375 0
0.96875 0.4375 0
0.96875 0.40625 0
1 0.40625 0
0.96875 0.4375 0
1 0.4375 0
0.875 0.4375 0
0.90625 0.4375 0
0.875 0.46875 0
0.90625 0.46875 0
0.90625 0.4375 0
0.9375 0.4375 0
0.90625 0.46875 0
0.9375 0.46875 0
0.875 0.46875 0
0.90625 0.46875 0
0.875 0.5 0
0.90625 0.5 0
0.90625 0.46875 0
0.9375 0.46875 0
0.90625 0.5 0
0.9375 0.5 0
0.9375 0.4375 0
0.96875 0.4375 0
0.9375 0.46875 0
0.96875 0.46875 0
0.96875 0.4375 0
1 0.4375 0
0.96875 0.46875 0
1 0.46875 0
0.9375 0.46875 0
0.96875 0.46875 0
0.9375 0.5 0
0.96875 0.5 0
0.96875 0.46875 0
1 0.46875 0
0.96875 0.5 0
1 0.5 0
0 0.5 0
0.03125 0.5 0
0 0.53125 0
0.03125 0.53125 0
0.03125 0.5 0
0.0625 0.5 0
0.03125 0.53125 0
0.0625 0.53125 0
0 0.53125 0
0.03125 0.53125 0
0 0.5625 0
0.03125 0.5625 0
0.03125 0.53125 0
0.0625 0.53125 0
0.03125 0.5625 0
0.0625 0.5625 0
0.0625 0.5 0
0.09375 0.5 0
0.0625 0.53125 0
0.09375 0.53125 0
0.09375 0.5 0
0.125 0.5 0
0.09375 0.53125 0
0.125 0.53125 0
0.0625 0.53125 0
0.09375 0.53125 0
0.0625 0.5625 0
0.09375 0.5625 0
0.09375 0.53125 0
0.125 0.53125 0
0.09375 0.5625 0
0.125 0.5625 0
0 0.5625 0
0.03125 0.5625 0
0 0.59375 0
0.03125 0.59375 0
0.03125 0.5625 0
0.0625 0.5625 0
0.03125 0.59375 0
0.0625 0.59375 0
0 0.59375 0
0.03125 0.59375 0
0 0.625 0
0.03125 0.625 0
0.03125 0.59375 0
0.0625 0.59375 0
0.03125 0.625 0
0.0625 0.625 0
0.0625 0.5625 0
0.09375 0.5625 0
0.0625 0.59375 0
0.09375 0.59375 0
0.09375 0.5625 0
0.125 0.5625 0
0.09375 0.59375 0
0.125 0.59375 0
0.0625 0.59375 0
0.09375 0.59375 0
0.0625 0.625 0
0.09375 0.625 0
0.09375 0.59375 0
0.125 0.59375 0
0.09375 0.625 0
0.125 0.625 0
0.125 0.5 0
0.15625 0.5 0
0.125 0.53125 0
0.15625 0.53125 0
0.15625 0.5 0
0.1875 0.5 0
0.15625 0.53125 0
0.1875 0.53125 0
0.125 0.53125 0
0.15625 0.53125 0
0.125 0.5625 0
0.15625 0.5625 0
0.15625 0.53125 0
0.1875 0.53125 0
0.15625 0.5625 0
0.1875 0.5625 0
0.1875 0.5 0
0.21875 0.5 0
0.1875 0.53125 0
0.21875 0.53125 0
0.21875 0.5 0
0.25 0.5 0
0.21875 0.53125 0
0.25 0.53125 0
0.1875 0.53125 0
0.21875 0.53125 0
0.1875 0.5625 0
0.21875 0.5625 0
0.21875 0.53125 0
0.25 0.53125 0
0.21875 0.5625 0
0.25 0.5625 0
0.125 0.5625 0
0.15625 0.5625 0
0.125 0.59375 0
0.15625 0.59375 0
0.15625 0.5625 0
0.1875 0.5625 0
0.15625 0.59375 0
0.1875 0.59375 0
0.125 0.59375 0
0.15625 0.59375 0
0.125 0.625 0
0.15625 0.625 0
0.15625 0.59375 0
0.1875 0.59375 0
0.15625 0.625 0
0.1875 0.625 0
0.1875 0.5625 0
0.21875 0.5625 0
0.1875 0.59375 0
0.21875 0.59375 0
0.21875 0.5625 0
0.25 0.5625 0
0.21875 0.59375 0
0.25 0.59375 0
0.1875 0.59375 0
0.21875 0.59375 0
0.1875 0.625 0
0.21875 0.625 0
0.21875 0.59375 0
0.25 0.59375 0
0.21875 0.625 0
0.25 0.625 0
0 0.625 0
0.03125 0.625 0
0 0.65625 0
0.03125 0.65625 0
0.03125 0.625 0
0.0625 0.625 0
0.03125 0.65625 0
0.0625 0.65625 0
0 0.65625 0
0.03125 0.65625 0
0 0.6875 0
0.03125 0.6875 0
0.03125 0.65625 0
0.0625 0.65625 0
0.03125 0.6875 0
0.0625 0.6875 0
0.0625 0.625 0
0.09375 0.625 0
0.0625 0.65625 0
0.09375 0.65625 0
0.09375 0.625 0
0.125 0.625 0
0.09375 0.65625 0
0.125 0.65625 0
0.0625 0.65625 0
0.09375 0.65625 0
0.0625 0.6875 0
0.09375 0.6875 0
0.09375 0.65625 0
0.125 0.65625 0
0.09375 0.6875 0
0.125 0.6875 0
0 0.6875 0
0.03125 0.6875 0
0 0.71875 0
0.03125 0.71875 0
0.03125 0.6875 0
0.0625 0.6875 0
0.03125 0.71875 0
0.0625 0.71875 0
0 0.71875 0
0.03125 0.71875 0
0 0.75 0
0.03125 0.75 0
0.03125 0.71875 0
0.0625 0.71875 0
0.03125 0.75 0
0.0625 0.75 0
0.0625 0.6875 0
0.09375 0.6875 0
0.0625 0.71875 0
0.09375 0.71875 0
0.09375 0.6875 0
0.125 0.6875 0
0.09375 0.71875 0
0.125 0.71875 0
0.0625 0.71875 0
0.09375 0.71875 0
0.0625 0.75 0
0.09375 0.75 0
0.09375 0.71875 0
0.125 0.71875 0
0.09375 0.75 0
0.125 0.75 0
0.125 0.625 0
0.15625 0.625 0
0.125 0.65625 0
0.15625 0.65625 0
0.15625 0.625 0
0.1875 0.625 0
0.15625 0.65625 0
0.1875 0.65625 0
0.125 0.65625 0
0.15625 0.65625 0
0.125 0.6875 0
0.15625 0.6875 0
0.15625 0.65625 0
0.1875 0.65625 0
0.15625 0.6875 0
0.1875 0.6875 0
0.1875 0.625 0
0.21875 0.625 0
0.1875 0.65625 0
0.21875 0.65625 0
0.21875 0.625 0
0.25 0.625 0
0.21875 0.65625 0
0.25 0.65625 0
0.1875 0.65625 0
0.21875 0.65625 0
0.1875 0.6875 0
0.21875 0.6875 0
0.21875 0.65625 0
0.25 0.65625 0
0.21875 0.6875 0
0.25 0.6875 0
0.125 0.6875 0
0.15625 0.6875 0
0.125 0.71875 0
0.15625 0.71875 0
0.15625 0.6875 0
0.1875 0.6875 0
0.15625 0.71875 0
0.1875 0.71875 0
0.125 0.71875 0
0.15625 0.71875 0
0.125 0.75 0
0.15625 0.75 0
0.15625 0.71875 0
0.1875 0.71875 0
0.15625 0.75 0
0.1875 0.75 0
0.1875 0.6875 0
0.21875 0.6875 0
0.1875 0.71875 0
0.21875 0.71875 0
0.21875 0.6875 0
0.25 0.6875 0
0.21875 0.71875 0
0.25 0.71875 0
0.1875 0.71875 0
0.21875 0.71875 0
0.1875 0.75 0
0.21875 0.75 0
0.21875 0.71875 0
0.25 0.71875 0
0.21875 0.75 0
0.25 0.75 0
0.25 0.5 0
0.28125 0.5 0
0.25 0.53125 0
0.28125 0.53125 0
0.28125 0.5 0
0.3125 0.5 0
0.28125 0.53125 0
0.3125 0.53125 0
0.25 0.53125 0
0.28125 0.53125 0
0.25 0.5625 0
0.28125 0.5625 0
0.28125 0.53125 0
0.3125 0.53125 0
0.28125 0.5625 0
0.3125 0.5625 0
0.3125 0.5 0
0.34375 0.5 0
0.3125 0.53125 0
0.34375 0.53125 0
0.34375 0.5 0
0.375 0.5 0
0.34375 0.53125 0
0.375 0.53125 0
0.3125 0.53125 0
0.34375 0.53125 0
0.3125 0.5625 0
0.34375 0.5625 0
0.34375 0.53125 0
0.375 0.53125 0
0.34375 0.5625 0
0.375 0.5625 0
0.25 0.5625 0
0.28125 0.5625 0
0.25 0.59375 0
0.28125 0.59375 0
0.28125 0.5625 0
0.3125 0.5625 0
0.28125 0.59375 0
0.3125 0.59375 0
0.25 0.59375 0
0.28125 0.59375 0
0.25 0.625 0
0.28125 0.625 0
0.28125 0.59375 0
0.3125 0.59375 0
0.28125 0.625 0
0.3125 0.625 0
0.3125 0.5625 0
0.34375 0.5625 0
0.3125 0.59375 0
0.34375 0.59375 0
0.34375 0.5625 0
0.375 0.5625 0
0.34375 0.59375 0
0.375 0.59375 0
0.3125 0.59375 0
0.34375 0.59375 0
0.3125 0.625 0
0.34375 0.625 0
0.34375 0.59375 0
0.375 0.59375 0
0.34375 0.625 0
0.375 0.625 0
0.375 0.5 0
0.40625 0.5 0
0.375 0.53125 0
0.40625 0.53125 0
0.40625 0.5 0
0.4375 0.5 0
0.40625 0.53125 0
0.4375 0.53125 0
0.375 0.53125 0
0.40625 0.53125 0
0.375 0.5625 0
0.40625 0.5625 0
0.40625 0.53125 0
0.4375 0.53125 0
0.40625 0.5625 0
0.4375 0.5625 0
0.4375 0.5 0
0.46875 0.5 0
0.4375 0.53125 0
0.46875 0.53125 0
0.46875 0.5 0
0.5 0.5 0
0.46875 0.53125 0
0.5 0.53125 0
0.4375 0.53125 0
0.46875 0.53125 0
0.4375 0.5625 0
0.46875 0.5625 0
0.46875 0.53125 0
0.5 0.53125 0
0.46875 0.5625 0
0.5 0.5625 0
0.375 0.5625 0
0.40625 0.5625 0
0.375 0.59375 0
0.40625 0.59375 0
0.40625 0.5625 0
0.4375 0.5625 0
0.40625 0.59375 0
0.4375 0.59375 0
0.375 0.59375 0
0.40625 0.59375 0
0.375 0.625 0
0.40625 0.625 0
0.40625 0.59375 0
0.4375 0.59375 0
0.40625 0.625 0
0.4375 0.625 0
0.4375 0.5625 0
0.46875 0.5625 0
0.4375 0.59375 0
0.46875 0.59375 0
0.46875 0.5625 0
0.5 0.5625 0
0.46875 0.59375 0
0.5 0.59375 0
0.4375 0.59375 0
0.46875 0.59375 0
0.4375 0.625 0
0.46875 0.625 0
0.46875 0.59375 0
0.5 0.59375 0
0.46875 0.625 0
0.5 0.625 0
0.25 0.625 0
0.28125 0.625 0
0.25 0.65625 0
0.28125 0.65625 0
0.28125 0.625 0
0.3125 0.625 0
0.28125 0.65625 0
0.3125 0.65625 0
0.25 0.65625 0
0.28125 0.65625 0
0.25 0.6875 0
0.28125 0.6875 0
0.28125 0.65625 0
0.3125 0.65625 0
0.28125 0.6875 0
0.3125 0.6875 0
0.3125 0.625 0
0.34375 0.625 0
0.3125 0.65625 0
0.34375 0.65625 0
0.34375 0.625 0
0.375 0.625 0
0.34375 0.65625 0
0.375 0.65625 0
0.3125 0.65625 0
0.34375 0.65625 0
0.3125 0.6875 0
0.34375 0.6875 0
0.34375 0.65625 0
0.375 0.65625 0
0.34375 0.6875 0
0.375 0.6875 0
0.25 0.6875 0
0.28125 0.6875 0
0.25 0.71875 0
0.28125 0.71875 0
0.28125 0.6875 0
0.3125 0.6875 0
0.28125 0.71875 0
0.3125 0.71875 0
0.25 0.71875 0
0.28125 0.71875 0
0.25 0.75 0
0.28125 0.75 0
0.28125 0.71875 0
0.3125 0.71875 0
0.28125 0.75 0
0.3125 0.75 0
0.3125 0.6875 0
0.34375 0.6875 0
0.3125 0.71875 0
0.34375 0.71875 0
0.34375 0.6875 0
0.375 0.6875 0
0.34375 0.71875 0
0.375 0.71875 0
0.3125 0.71875 0
0.34375 0.71875 0
0.3125 0.75 0
0.34375 0.75 0
0.34375 0.71875 0
0.375 0.71875 0
0.34375 0.75 0
0.375 0.75 0
0.375 0.625 0
0.40625 0.625 0
0.375 0.65625 0
0.40625 0.65625 0
0.40625 0.625 0
0.4375 0.625 0
0.40625 0.65625 0
0.4375 0.65625 0
0.375 0.65625 0
0.40625 0.65625 0
0.375 0.6875 0
0.40625 0.6875 0
0.40625 0.65625 0
0.4375 0.65625 0
0.40625 0.6875 0
0.4375 0.6875 0
0.4375 0.625 0
0.46875 0.625 0
0.4375 0.65625 0
0.46875 0.65625 0
0.46875 0.625 0
0.5 0.625 0
0.46875 0.65625 0
0.5 0.65625 0
0.4375 0.65625 0
0.46875 0.65625 0
0.4375 0.6875 0
0.46875 0.6875 0
0.46875 0.65625 0
0.5 0.65625 0
0.46875 0.6875 0
0.5 0.6875 0
0.375 0.6875 0
0.40625 0.6875 0
0.375 0.71875 0
0.40625 0.71875 0
0.40625 0.6875 0
0.4375 0.6875 0
0.40625 0.71875 0
0.4375 0.71875 0
0.375 0.71875 0
0.40625 0.71875 0
0.375 0.75 0
0.40625 0.75 0
0.40625 0.71875 0
0.4375 0.71875 0
0.40625 0.75 0
0.4375 0.75 0
0.4375 0.6875 0
0.46875 0.6875 0
0.4375 0.71875 0
0.46875 0.71875 0
0.46875 0.6875 0
0.5 0.6875 0
0.46875 0.71875 0
0.5 0.71875 0
0.4375 0.71875 0
0.46875 0.71875 0
0.4375 0.75 0
0.46875 0.75 0
0.46875 0.71875 0
0.5 0.71875 0
0.46875 0.75 0
0.5 0.75 0
0 0.75 0
0.03125 0.75 0
0 0.78125 0
0.03125 0.78125 0
0.03125 0.75 0
0.0625 0.75 0
0.03125 0.78125 0
0.0625 0.78125 0
0 0.78125 0
0.03125 0.78125 0
0 0.8125 0
0.03125 0.8125 0
0.03125 0.78125 0
0.0625 0.78125 0
0.03125 0.8125 0
0.0625 0.8125 0
0.0625 0.75 0
0.09375 0.75 0
0.0625 0.78125 0
0.09375 0.78125 0
0.09375 0.75 0
0.125 0.75 0
0.09375 0.78125 0
0.125 0.78125 0
0.0625 0.78125 0
0.09375 0.78125 0
0.0625 0.8125 0
0.09375 0.8125 0
0.09375 0.78125 0
0.125 0.78125 0
0.09375 0.8125 0
0.125 0.8125 0
0 0.8125 0
0.03125 0.8125 0
0 0.84375 0
0.03125 0.84375 0
0.03125 0.8125 0
0.0625 0.8125 0
0.03125 0.84375 0
0.0625 0.84375 0
0 0.84375 0
0.03125 0.84375 0
0 0.875 0
0.03125 0.875 0
0.03125 0.84375 0
0.0625 0.84375 0
0.03125 0.875 0
0.0625 0.875 0
0.0625 0.8125 0
0.09375 0.8125 0
0.0625 0.84375 0
0.09375 0.84375 0
0.09375 0.8125 0
0.125 0.8125 0
0.09375 0.84375 0
0.125 0.84375 0
0.0625 0.84375 0
0.09375 0.84375 0
0.0625 0.875 0
0.09375 0.875 0
0.09375 0.84375 0
0.125 0.84375 0
0.09375 0.875 0
0.125 0.875 0
0.125 0.75 0
0.15625 0.75 0
0.125 0.78125 0
0.15625 0.78125 0
0.15625 0.75 0
0.1875 0.75 0
0.15625 0.78125 0
0.1875 0.78125 0
0.125 0.78125 0
0.15625 0.78125 0
0.125 0.8125 0
0.15625 0.8125 0
0.15625 0.78125 0
0.1875 0.78125 0
0.15625 0.8125 0
0.1875 0.8125 0
0.1875 0.75 0
0.21875 0.75 0
0.1875 0.78125 0
0.21875 0.78125 0
0.21875 0.75 0
0.25 0.75 0
0.21875 0.78125 0
0.25 0.78125 0
0.1875 0.78125 0
0.21875 0.78125 0
0.1875 0.8125 0
0.21875 0.8125 0
0.21875 0.78125 0
0.25 0.78125 0
0.21875 0.8125 0
0.25 0.8125 0
0.125 0.8125 0
0.15625 0.8125 0
0.125 0.84375 0
0.15625 0.84375 0
0.15625 0.8125 0
0.1875 0.8125 0
0.15625 0.84375 0
0.1875 0.84375 0
0.125 0.84375 0
0.15625 0.84375 0
0.125 0.875 0
0.15625 0.875 0
0.15625 0.84375 0
0.1875 0.84375 0
0.15625 0.875 0
0.1875 0.875 0
0.1875 0.8125 0
0.21875 0.8125 0
0.1875 0.84375 0
0.21875 0.84375 0
0.21875 0.8125 0
0.25 0.8125 0
0.21875 0.84375 0
0.25 0.84375 0
0.1875 0.84375 0
0.21875 0.84375 0
0.1875 0.875 0
0.21875 0.875 0
0.21875 0.84375 0
0.25 0.84375 0
0.21875 0.875 0
0.25 0.875 0
0 0.875 0
0.03125 0.875 0
0 0.90625 0
0.03125 0.90625 0
0.03125 0.875 0
0.0625 0.875 0
0.03125 0.90625 0
0.0625 0.90625 0
0 0.90625 0
0.03125 0.90625 0
0 0.9375 0
0.03125 0.9375 0
0.03125 0.90625 0
0.0625 0.90625 0
0.03125 0.9375 0
0.0625 0.9375 0
0.0625 0.875 0
0.09375 0.875 0
0.0625 0.90625 0
0.09375 0.90625 0
0.09375 0.875 0
0.125 0.875 0
0.09375 0.90625 0
0.125 0.90625 0
0.0625 0.90625 0
0.09375 0.90625 0
0.0625 0.9375 0
0.09375 0.9375 0
0.09375 0.90625 0
0.125 0.90625 0
0.09375 0.9375 0
0.125 0.9375 0
0 0.9375 0
0.03125 0.9375 0
0 0.96875 0
0.03125 0.96875 0
0.03125 0.9375 0
0.0625 0.9375 0
0.03125 0.96875 0
0.0625 0.96875 0
0 0.96875 0
0.03125 0.96875 0
0 1 0
0.03125 1 0
0.03125 0.96875 0
0.0625 0.96875 0
0.03125 1 0
0.0625 1 0
0.0625 0.9375 0
0.09375 0.9375 0
0.0625 0.96875 0
0.09375 0.96875 0
0.09375 0.9375 0
0.125 0.9375 0
0.09375 0.96875 0
0.125 0.96875 0
0.0625 0.96875 0
0.09375 0.96875 0
0.0625 1 0
0.09375 1 0
0.09375 0.96875 0
0.125 0.96875 0
0.09375 1 0
0.125 1 0
0.125 0.875 0
0.15625 0.875 0
0.125 0.90625 0
0.15625 0.90625 0
0.15625 0.875 0
0.1875 0.875 0
0.15625 0.90625 0
0.1875 0.90625 0
0.125 0.90625 0
0.15625 0.90625 0
0.125 0.9375 0
0.15625 0.9375 0
0.15625 0.90625 0
0.1875 0.90625 0
0.15625 0.9375 0
0.1875 0.9375 0
0.1875 0.875 0
0.21875 0.875 0
0.1875 0.90625 0
0.21875 0.90625 0
0.21875 0.875 0
0.25 0.875 0
0.21875 0.90625 0
0.25 0.90625 0
0.1875 0.90625 0
0.21875 0.90625 0
0.1875 0.9375 0
0.21875 0.9375 0
0.21875 0.90625 0
0.25 0.90625 0
0.21875 0.9375 0
0.25 0.9375 0
0.125 0.9375 0
0.15625 0.9375 0
0.125 0.96875 0
0.15625 0.96875 0
0.15625 0.9375 0
0.1875 0.9375 0
0.15625 0.96875 0
0.1875 0.96875 0
0.125 0.96875 0
0.15625 0.96875 0
0.125 1 0
0.15625 1 0
0.15625 0.96875 0
0.1875 0.96875 0
0.15625 1 0
0.1875 1 0
0.1875 0.9375 0
0.21875 0.9375 0
0.1875 0.96875 0
0.21875 0.96875 0
0.21875 0.9375 0
0.25 0.9375 0
0.21875 0.96875 0
0.25 0.96875 0
0.1875 0.96875 0
0.21875 0.96875 0
0.1875 1 0
0.21875 1 0
0.21875 0.96875 0
0.25 0.96875 0
0.21875 1 0
0.25 1 0
0.25 0.75 0
0.28125 0.75 0
0.25 0.78125 0
0.28125 0.78125 0
0.28125 0.75 0
0.3125 0.75 0
0.28125 0.78125 0
0.3125 0.78125 0
0.25 0.78125 0
0.28125 0.78125 0
0.25 0.8125 0
0.28125 0.8125 0
0.28125 0.78125 0
0.3125 0.78125 0
0.28125 0.8125 0
0.3125 0.8125 0
0.3125 0.75 0
0.34375 0.75 0
0.3125 0.78125 0
0.34375 0.78125 0
0.34375 0.75 0
0.375 0.75 0
0.34375 0.78125 0
0.375 0.78125 0
0.3125 0.78125 0
0.34375 0.78125 0
0.3125 0.8125 0
0.34375 0.8125 0
0.34375 0.78125 0
0.375 0.78125 0
0.34375 0.8125 0
0.375 0.8125 0
0.25 0.8125 0
0.28125 0.8125 0
0.25 0.84375 0
0.28125 0.84375 0
0.28125 0.8125 0
0.3125 0.8125 0
0.28125 0.84375 0
0.3125 0.84375 0
0.25 0.84375 0
0.28125 0.84375 0
0.25 0.875 0
0.28125 0.875 0
0.28125 0.84375 0
0.3125 0.84375 0
0.28125 0.875 0
0.3125 0.875 0
0.3125 0.8125 0
0.34375 0.8125 0
0.3125 0.84375 0
0.34375 0.84375 0
0.34375 0.8125 0
0.375 0.8125 0
0.34375 0.84375 0
0.375 0.84375 0
0.3125 0.84375 0
0.34375 0.84375 0
0.3125 0.875 0
0.34375 0.875 0
0.34375 0.84375 0
0.375 0.84375 0
0.34375 0.875 0
0.375 0.875 0
0.375 0.75 0
0.40625 0.75 0
0.375 0.78125 0
0.40625 0.78125 0
0.40625 0.75 0
0.4375 0.75 0
0.40625 0.78125 0
0.4375 0.78125 0
0.375 0.78125 0
0.40625 0.78125 0
0.375 0.8125 0
0.40625 0.8125 0
0.40625 0.78125 0
0.4375 0.78125 0
0.40625 0.8125 0
0.4375 0.8125 0
0.4375 0.75 0
0.46875 0.75 0
0.4375 0.78125 0
0.46875 0.78125 0
0.46875 0.75 0
0.5 0.75 0
0.46875 0.78125 0
0.5 0.78125 0
0.4375 0.78125 0
0.46875 0.78125 0
0.4375 0.8125 0
0.46875 0.8125 0
0.46875 0.78125 0
0.5 0.78125 0
0.46875 0.8125 0
0.5 0.8125 0
0.375 0.8125 0
0.40625 0.8125 0
0.375 0.84375 0
0.40625 0.84375 0
0.40625 0.8125 0
0.4375 0.8125 0
0.40625 0.84375 0
0.4375 0.84375 0
0.375 0.84375 0
0.40625 0.84375 0
0.375 0.875 0
0.40625 0.875 0
0.40625 0.84375 0
0.4375 0.84375 0
0.40625 0.875 0
0.4375 0.875 0
0.4375 0.8125 0
0.46875 0.8125 0
0.4375 0.84375 0
0.46875 0.84375 0
0.46875 0.8125 0
0.5 0.8125 0
0.46875 0.84375 0
0.5 0.84375 0
0.4375 0.84375 0
0.46875 0.84375 0
0.4375 0.875 0
0.46875 0.875 0
0.46875 0.84375 0
0.5 0.84375 0
0.46875 0.875 0
0.5 0.875 0
0.25 0.875 0
0.28125 0.875 0
0.25 0.90625 0
0.28125 0.90625 0
0.28125 0.875 0
0.3125 0.875 0
0.28125 0.90625 0
0.3125 0.90625 0
0.25 0.90625 0
0.28125 0.90625 0
0.25 0.9375 0
0.28125 0.9375 0
0.28125 0.90625 0
0.3125 0.90625 0
0.28125 0.9375 0
0.3125 0.9375 0
0.3125 0.875 0
0.34375 0.875 0
0.3125 0.90625 0
0.34375 0.90625 0
0.34375 0.875 0
0.375 0.875 0
0.34375 0.90625 0
0.375 0.90625 0
0.3125 0.90625 0
0.34375 0.90625 0
0.3125 0.9375 0
0.34375 0.9375 0
0.34375 0.90625 0
0.375 0.90625 0
0.34375 0.9375 0
0.375 0.9375 0
0.25 0.9375 0
0.28125 0.9375 0
0.25 0.96875 0
0.28125 0.96875 0
0.28125 0.9375 0
0.3125 0.9375 0
0.28125 0.96875 0
0.3125 0.96875 0
0.25 0.96875 0
0.28125 0.96875 0
0.25 1 0
0.28125 1 0
0.28125 0.96875 0
0.3125 0.96875 0
0.28125 1 0
0.3125 1 0
0.3125 0.9375 0
0.34375 0.9375 0
0.3125 0.96875 0
0.34375 0.96875 0
0.34375 0.9375 0
0.375 0.9375 0
0.34375 0.96875 0
0.375 0.96875 0
0.3125 0.96875 0
0.34375 0.96875 0
0.3125 1 0
0.34375 1 0
0.34375 0.96875 0
0.375 0.96875 0
0.34375 1 0
0.375 1 0
0.375 0.875 0
0.40625 0.875 0
0.375 0.90625 0
0.40625 0.90625 0
0.40625 0.875 0
0.4375 0.875 0
0.40625 0.90625 0
0.4375 0.90625 0
0.375 0.90625 0
0.40625 0.90625 0
0.375 0.9375 0
0.40625 0.9375 0
0.40625 0.90625 0
0.4375 0.90625 0
0.40625 0.9375 0
0.4375 0.9375 0
0.4375 0.875 0
0.46875 0.875 0
0.4375 0.90625 0
0.46875 0.90625 0
0.46875 0.875 0
0.5 0.875 0
0.46875 0.90625 0
0.5 0.90625 0
0.4375 0.90625 0
0.46875 0.90625 0
0.4375 0.9375 0
0.46875 0.9375 0
0.46875 0.90625 0
0.5 0.90625 0
0.46875 0.9375 0
0.5 0.9375 0
0.375 0.9375 0
0.40625 0.9375 0
0.375 0.96875 0
0.40625 0.96875 0
0.40625 0.9375 0
0.4375 0.9375 0
0.40625 0.96875 0
0.4375 0.96875 0
0.375 0.96875 0
0.40625 0.96875 0
0.375 1 0
0.40625 1 0
0.40625 0.96875 0
0.4375 0.96875 0
0.40625 1 0
0.4375 1 0
0.4375 0.9375 0
0.46875 0.9375 0
0.4375 0.96875 0
0.46875 0.96875 0
0.46875 0.9375 0
0.5 0.9375 0
0.46875 0.96875 0
0.5 0.96875 0
0.4375 0.96875 0
0.46875 0.96875 0
0.4375 1 0
0.46875 1 0
0.46875 0.96875 0
0.5 0.96875 0
0.46875 1 0
0.5 1 0
0.5 0.5 0
0.53125 0.5 0
0.5 0.53125 0
0.53125 0.53125 0
0.53125 0.5 0
0.5625 0.5 0
0.53125 0.53125 0
0.5625 0.53125 0
0.5 0.53125 0
0.53125 0.53125 0
0.5 0.5625 0
0.53125 0.5625 0
0.53125 0.53125 0
0.5625 0.53125 0
0.53125 0.5625 0
0.5625 0.5625 0
0.5625 0.5 0
0.59375 0.5 0
0.5625 0.53125 0
0.59375 0.53125 0
0.59375 0.5 0
0.625 0.5 0
0.59375 0.53125 0
0.625 0.53125 0
0.5625 0.53125 0
0.59375 0.53125 0
0.5625 0.5625 0
0.59375 0.5625 0
0.59375 0.53125 0
0.625 0.53125 0
0.59375 0.5625 0
0.625 0.5625 0
0.5 0.5625 0
0.53125 0.5625 0
0.5 0.59375 0
0.53125 0.59375 0
0.53125 0.5625 0
0.5625 0.5625 0
0.53125 0.59375 0
0.5625 0.59375 0
0.5 0.59375 0
0.53125 0.59375 0
0.5 0.625 0
0.53125 0.625 0
0.53125 0.59375 0
0.5625 0.59375 0
0.53125 0.625 0
0.5625 0.625 0
0.5625 0.5625 0
0.59375 0.5625 0
0.5625 0.59375 0
0.59375 0.59375 0
0.59375 0.5625 0
0.625 0.5625 0
0.59375 0.59375 0
0.625 0.59375 0
0.5625 0.59375 0
0.59375 0.59375 0
0.5625 0.625 0
0.59375 0.625 0
0.59375 0.59375 0
0.625 0.59375 0
0.59375 0.625 0
0.625 0.625 0
0.625 0.5 0
0.65625 0.5 0
0.625 0.53125 0
0.65625 0.53125 0
0.65625 0.5 0
0.6875 0.5 0
0.65625 0.53125 0
0.6875 0.53125 0
0.625 0.53125 0
0.65625 0.53125 0
0.625 0.5625 0
0.65625 0.5625 0
0.65625 0.53125 0
0.6875 0.53125 0
0.65625 0.5625 0
0.6875 0.5625 0
0.6875 0.5 0
0.71875 0.5 0
0.6875 0.53125 0
0.71875 0.53125 0
0.71875 0.5 0
0.75 0.5 0
0.71875 0.53125 0
0.75 0.53125 0
0.6875 0.53125 0
0.71875 0.53125 0
0.6875 0.5625 0
0.71875 0.5625 0
0.71875 0.53125 0
0.75 0.53125 0
0.71875 0.5625 0
0.75 0.5625 0
0.625 0.5625 0
0.65625 0.5625 0
0.625 0.59375 0
0.65625 0.59375 0
0.65625 0.5625 0
0.6875 0.5625 0
0.65625 0.59375 0
0.6875 0.59375 0
0.625 0.59375 0
0.65625 0.59375 0
0.625 0.625 0
0.65625 0.625 0
0.65625 0.59375 0
0.6875 0.59375 0
0.65625 0.625 0
0.6875 0.625 0
0.6875 0.5625 0
0.71875 0.5625 0
0.6875 0.59375 0
0.71875 0.59375 0
0.71875 0.5625 0
0.75 0.5625 0
0.71875 0.59375 0
0.75 0.59375 0
0.6875 0.59375 0
0.71875 0.59375 0
0.6875 0.625 0
0.71875 0.625 0
0.71875 0.59375 0
0.75 0.59375 0
0.71875 0.625 0
0.75 0.625 0
0.5 0.625 0
0.53125 0.625 0
0.5 0.65625 0
0.53125 0.65625 0
0.53125 0.625 0
0.5625 0.625 0
0.53125 0.65625 0
0.5625 0.65625 0
0.5 0.65625 0
0.53125 0.65625 0
0.5 0.6875 0
0.53125 0.6875 0
0.53125 0.65625 0
0.5625 0.65625 0
0.53125 0.6875 0
0.5625 0.6875 0
0.5625 0.625 0
0.59375 0.625 0
0.5625 0.65625 0
0.59375 0.65625 0
0.59375 0.625 0
0.625 0.625 0
0.59375 0.65625 0
0.625 0.65625 0
0.5625 0.65625 0
0.59375 0.65625 0
0.5625 0.6875 0
0.59375 0.6875 0
0.59375 0.65625 0
0.625 0.65625 0
0.59375 0.6875 0
0.625 0.6875 0
0.5 0.6875 0
0.53125 0.6875 0
0.5 0.71875 0
0.53125 0.71875 0
0.53125 0.6875 0
0.5625 0.6875 0
0.53125 0.71875 0
0.5625 0.71875 0
0.5 0.71875 0
0.53125 0.71875 0
0.5 0.75 0
0.53125 0.75 0
0.53125 0.71875 0
0.5625 0.71875 0
0.53125 0.75 0
0.5625 0.75 0
0.5625 0.6875 0
0.59375 0.6875 0
0.5625 0.71875 0
0.59375 0.71875 0
0.59375 0.6875 0
0.625 0.6875 0
0.59375 0.71875 0
0.625 0.71875 0
0.5625 0.71875 0
0.59375 0.71875 0
0.5625 0.75 0
0.59375 0.75 0
0.59375 0.71875 0
0.625 0.71875 0
0.59375 0.75 0
0.625 0.75 0
0.625 0.625 0
0.65625 0.625 0
0.625 0.65625 0
0.65625 0.65625 0
0.65625 0.625 0
0.6875 0.625 0
0.65625 0.65625 0
0.6875 0.65625 0
0.625 0.65625 0
0.65625 0.65625 0
0.625 0.6875 0
0.65625 0.6875 0
0.65625 0.65625 0
0.6875 0.65625 0
0.65625 0.6875 0
0.6875 0.6875 0
0.6875 0.625 0
0.71875 0.625 0
0.6875 0.65625 0
0.71875 0.65625 0
0.71875 0.625 0
0.75 0.625 0
0.71875 0.65625 0
0.75 0.65625 0
0.6875 0.65625 0
0.71875 0.65625 0
0.6875 0.6875 0
0.71875 0.6875 0
0.71875 0.65625 0
0.75 0.65625 0
0.71875 0.6875 0
0.75 0.6875 0
0.625 0.6875 0
0.65625 0.6875 0
0.625 0.71875 0
0.65625 0.71875 0
0.65625 0.6875 0
0.6875 0.6875 0
0.65625 0.71875 0
0.6875 0.71875 0
0.625 0.71875 0
0.65625 0.71875 0
0.625 0.75 0
0.65625 0.75 0
0.65625 0.71875 0
0.6875 0.71875 0
0.65625 0.75 0
0.6875 0.75 0
0.6875 0.6875 0
0.71875 0.6875 0
0.6875 0.71875 0
0.71875 0.71875 0
0.71875 0.6875 0
0.75 0.6875 0
0.71875 0.71875 0
0.75 0.71875 0
0.6875 0.71875 0
0.71875 0.71875 0
0.6875 0.75 0
0.71875 0.75 0
0.71875 0.71875 0
0.75 0.71875 0
0.71875 0.75 0
0.75 0.75 0
0.75 0.5 0
0.78125 0.5 0
0.75 0.53125 0
0.78125 0.53125 0
0.78125 0.5 0
0.8125 0.5 0
0.78125 0.53125 0
0.8125 0.53125 0
0.75 0.53125 0
0.78125 0.53125 0
0.75 0.5625 0
0.78125 0.5625 0
0.78125 0.53125 0
0.8125 0.53125 0
0.78125 0.5625 0
0.8125 0.5625 0
0.8125 0.5 0
0.84375 0.5 0
0.8125 0.53125 0
0.84375 0.53125 0
0.84375 0.5 0
0.875 0.5 0
0.84375 0.53125 0
0.875 0.53125 0
0.8125 0.53125 0
0.84375 0.53125 0
0.8125 0.5625 0
0.84375 0.5625 0
0.84375 0.53125 0
0.875 0.53125 0
0.84375 0.5625 0
0.875 0.5625 0
0.75 0.5625 0
0.78125 0.5625 0
0.75 0.59375 0
0.78125 0.59375 0
0.78125 0.5625 0
0.8125 0.5625 0
0.78125 0.59375 0
0.8125 0.59375 0
0.75 0.59375 0
0.78125 0.59375 0
0.75 0.625 0
0.78125 0.625 0
0.78125 0.59375 0
0.8125 0.59375 0
0.78125 0.625 0
0.8125 0.625 0
0.8125 0.5625 0
0.84375 0.5625 0
0.8125 0.59375 0
0.84375 0.59375 0
0.84375 0.5625 0
0.875 0.5625 0
0.84375 0.59375 0
0.875 0.59375 0
0.8125 0.59375 0
0.84375 0.59375 0
0.8125 0.625 0
0.84375 0.625 0
0.84375 0.59375 0
0.875 0.59375 0
0.84375 0.625 0
0.875 0.625 0
0.875 0.5 0
0.90625 0.5 0
0.875 0.53125 0
0.90625 0.53125 0
0.90625 0.5 0
0.9375 0.5 0
0.90625 0.53125 0
0.9375 0.53125 0
0.875 0.53125 0
0.90625 0.53125 0
0.875 0.5625 0
0.90625 0.5625 0
0.90625 0.53125 0
0.9375 0.53125 0
0.90625 0.5625 0
0.9375 0.5625 0
0.9375 0.5 0
0.96875 0.5 0
0.9375 0.53125 0
0.96875 0.53125 0
0.96875 0.5 0
1 0.5 0
0.96875 0.53125 0
1 0.53125 0
0.9375 0.53125 0
0.96875 0.53125 0
0.9375 0.5625 0
0.96875 0.5625 0
0.96875 0.53125 0
1 0.53125 0
0.96875 0.5625 0
1 0.5625 0
0.875 0.5625 0
0.90625 0.5625 0
0.875 0.59375 0
0.90625 0.59375 0
0.90625 0.5625 0
0.9375 0.5625 0
0.90625 0.59375 0
0.9375 0.59375 0
0.875 0.59375 0
0.90625 0.59375 0
0.875 0.625 0
0.90625 0.625 0
0.90625 0.59375 0
0.9375 0.59375 0
0.90625 0.625 0
0.9375 0.625 0
0.9375 0.5625 0
0.96875 0.5625 0
0.9375 0.59375 0
0.96875 0.59375 0
0.96875 0.5625 0
1 0.5625 0
0.96875 0.59375 0
1 0.59375 0
0.9375 0.59375 0
0.96875 0.59375 0
0.9375 0.625 0
0.96875 0.625 0
0.96875 0.59375 0
1 0.59375 0
0.96875 0.625 0
1 0.625 0
0.75 0.625 0
0.78125 0.625 0
0.75 0.65625 0
0.78125 0.65625 0
0.78125 0.625 0
0.8125 0.625 0
0.78125 0.65625 0
0.8125 0.65625 0
0.75 0.65625 0
0.78125 0.65625 0
0.75 0.6875 0
0.78125 0.6875 0
0.78125 0.65625 0
0.8125 0.65625 0
0.78125 0.6875 0
0.8125 0.6875 0
0.8125 0.625 0
0.84375 0.625 0
0.8125 0.65625 0
0.84375 0.65625 0
0.84375 0.625 0
0.875 0.625 0
0.84375 0.65625 0
0.875 0.65625 0
0.8125 0.65625 0
0.84375 0.65625 0
0.8125 0.6875 0
0.84375 0.6875 0
0.84375 0.65625 0
0.875 0.65625 0
0.84375 0.6875 0
0.875 0.6875 0
0.75 0.6875 0
0.78125 0.6875 0
0.75 0.71875 0
0.78125 0.71875 0
0.78125 0.6875 0
0.8125 0.6875 0
0.78125 0.71875 0
0.8125 0.71875 0
0.75 0.71875 0
0.78125 0.71875 0
0.75 0.75 0
0.78125 0.75 0
0.78125 0.71875 0
0.8125 0.71875 0
0.78125 0.75 0
0.8125 0.75 0
0.8125 0.6875 0
0.84375 0.6875 0
0.8125 0.71875 0
0.84375 0.71875 0
0.84375 0.6875 0
0.875 0.6875 0
0.84375 0.71875 0
0.875 0.71875 0
0.8125 0.71875 0
0.84375 0.71875 0
0.8125 0.75 0
0.84375 0.75 0
0.84375 0.71875 0
0.875 0.71875 0
0.84375 0.75 0
0.875 0.75 0
0.875 0.625 0
0.90625 0.625 0
0.875 0.65625 0
0.90625 0.65625 0
0.90625 0.625 0
0.9375 0.625 0
0.90625 0.65625 0
0.9375 0.65625 0
0.875 0.65625 0
0.90625 0.65625 0
0.875 0.6875 0
0.90625 0.6875 0
0.90625 0.65625 0
0.9375 0.65625 0
0.90625 0.6875 0
0.9375 0.6875 0
0.9375 0.625 0
0.96875 0.625 0
0.9375 0.65625 0
0.96875 0.65625 0
0.96875 0.625 0
1 0.625 0
0.96875 0.65625 0
1 0.65625 0
0.9375 0.65625 0
0.96875 0.65625 0
0.9375 0.6875 0
0.96875 0.6875 0
0.96875 0.65625 0
1 0.65625 0
0.96875 0.6875 0
1 0.6875 0
0.875 0.6875 0
0.90625 0.6875 0
0.875 0.71875 0
0.90625 0.71875 0
0.90625 0.6875 0
0.9375 0.6875 0
0.90625 0.71875 0
0.9375 0.71875 0
0.875 0.71875 0
0.90625 0.71875 0
0.875 0.75 0
0.90625 0.75 0
0.90625 0.71875 0
0.9375 0.71875 0
0.90625 0.75 0
0.9375 0.75 0
0.9375 0.6875 0
0.96875 0.6875 0
0.9375 0.71875 0
0.96875 0.71875 0
0.96875 0.6875 0
1 0.6875 0
0.96875 0.71875 0
1 0.71875 0
0.9375 0.71875 0
0.96875 0.71875 0
0.9375 0.75 0
0.96875 0.75 0
0.96875 0.71875 0
1 0.71875 0
0.96875 0.75 0
1 0.75 0
0.5 0.75 0
0.53125 0.75 0
0.5 0.78125 0
0.53125 0.78125 0
0.53125 0.75 0
0.5625 0.75 0
0.53125 0.78125 0
0.5625 0.78125 0
0.5 0.78125 0
0.53125 0.78125 0
0.5 0.8125 0
0.53125 0.8125 0
0.53125 0.78125 0
0.5625 0.78125 0
0.53125 0.8125 0
0.5625 0.8125 0
0.5625 0.75 0
0.59375 0.75 0
0.5625 0.78125 0
0.59375 0.78125 0
0.59375 0.75 0
0.625 0.75 0
0.59375 0.78125 0
0.625 0.78125 0
0.5625 0.78125 0
0.59375 0.78125 0
0.5625 0.8125 0
0.59375 0.8125 0
0.59375 0.78125 0
0.625 0.78125 0
0.59375 0.8125 0
0.625 0.8125 0
0.5 0.8125 0
0.53125 0.8125 0
0.5 0.84375 0
0.53125 0.84375 0
0.53125 0.8125 0
0.5625 0.8125 0
0.53125 0.84375 0
0.5625 0.84375 0
0.5 0.84375 0
0.53125 0.84375 0
0.5 0.875 0
0.53125 0.875 0
0.53125 0.84375 0
0.5625 0.84375 0
0.53125 0.875 0
0.5625 0.875 0
0.5625 0.8125 0
0.59375 0.8125 0
0.5625 0.84375 0
0.59375 0.84375 0
0.59375 0.8125 0
0.625 0.8125 0
0.59375 0.84375 0
0.625 0.84375 0
0.5625 0.84375 0
0.59375 0.84375 0
0.5625 0.875 0
0.59375 0.875 0
0.59375 0.84375 0
0.625 0.84375 0
0.59375 0.875 0
0.625 0.875 0
0.625 0.75 0
0.65625 0.75 0
0.625 0.78125 0
0.65625 0.78125 0
0.65625 0.75 0
0.6875 0.75 0
0.65625 0.78125 0
0.6875 0.78125 0
0.625 0.78125 0
0.65625 0.78125 0
0.625 0.8125 0
0.65625 0.8125 0
0.65625 0.78125 0
0.6875 0.78125 0
0.65625 0.8125 0
0.6875 0.8125 0
0.6875 0.75 0
0.71875 0.75 0
0.6875 0.78125 0
0.71875 0.78125 0
0.71875 0.75 0
0.75 0.75 0
0.71875 0.78125 0
0.75 0.78125 0
0.6875 0.78125 0
0.71875 0.78125 0
0.6875 0.8125 0
0.71875 0.8125 0
0.71875 0.78125 0
0.75 0.78125 0
0.71875 0.8125 0
0.75 0.8125 0
0.625 0.8125 0
0.65625 0.8125 0
0.625 0.84375 0
0.65625 0.84375 0
0.65625 0.8125 0
0.6875 0.8125 0
0.65625 0.84375 0
0.6875 0.84375 0
0.625 0.84375 0
0.65625 0.84375 0
0.625 0.875 0
0.65625 0.875 0
0.65625 0.84375 0
0.6875 0.84375 0
0.65625 0.875 0
0.6875 0.875 0
0.6875 0.8125 0
0.71875 0.8125 0
0.6875 0.84375 0
0.71875 0.84375 0
0.71875 0.8125 0
0.75 0.8125 0
0.71875 0.84375 0
0.75 0.84375 0
0.6875 0.84375 0
0.71875 0.84375 0
0.6875 0.875 0
0.71875 0.875 0
0.71875 0.84375 0
0.75 0.84375 0
0.71875 0.875 0
0.75 0.875 0
0.5 0.875 0
0.53125 0.875 0
0.5 0.90625 0
0.53125 0.90625 0
0.53125 0.875 0
0.5625 0.875 0
0.53125 0.90625 0
0.5625 0.90625 0
0.5 0.90625 0
0.53125 0.90625 0
0.5 0.9375 0
0.53125 0.9375 0
0.53125 0.90625 0
0.5625 0.90625 0
0.53125 0.9375 0
0.5625 0.9375 0
0.5625 0.875 0
0.59375 0.875 0
0.5625 0.90625 0
0.59375 0.90625 0
0.59375 0.875 0
0.625 0.875 0
0.59375 0.90625 0
0.625 0.90625 0
0.5625 0.90625 0
0.59375 0.90625 0
0.5625 0.9375 0
0.59375 0.9375 0
0.59375 0.90625 0
0.625 0.90625 0
0.59375 0.9375 0
0.625 0.9375 0
0.5 0.9375 0
0.53125 0.9375 0
0.5 0.96875 0
0.53125 0.96875 0
0.53125 0.9375 0
0.5625 0.9375 0
0.53125 0.96875 0
0.5625 0.96875 0
0.5 0.96875 0
0.53125 0.96875 0
0.5 1 0
0.53125 1 0
0.53125 0.96875 0
0.5625 0.96875 0
0.53125 1 0
0.5625 1 0
0.5625 0.9375 0
0.59375 0.9375 0
0.5625 0.96875 0
0.59375 0.96875 0
0.59375 0.9375 0
0.625 0.9375 0
0.59375 0.96875 0
0.625 0.96875 0
0.5625 0.96875 0
0.59375 0.96875 0
0.5625 1 0
0.59375 1 0
0.59375 0.96875 0
0.625 0.96875 0
0.59375 1 0
0.625 1 0
0.625 0.875 0
0.65625 0.875 0
0.625 0.90625 0
0.65625 0.90625 0
0.65625 0.875 0
0.6875 0.875 0
0.65625 0.90625 0
0.6875 0.90625 0
0.625 0.90625 0
0.65625 0.90625 0
0.625 0.9375 0
0.65625 0.9375 0
0.65625 0.90625 0
0.6875 0.90625 0
0.65625 0.9375 0
0.6875 0.9375 0
0.6875 0.875 0
0.71875 0.875 0
0.6875 0.90625 0
0.71875 0.90625 0
0.71875 0.875 0
0.75 0.875 0
0.71875 0.90625 0
0.75 0.90625 0
0.6875 0.90625 0
0.71875 0.90625 0
0.6875 0.9375 0
0.71875 0.9375 0
0.71875 0.90625 0
0.75 0.90625 0
0.71875 0.9375 0
0.75 0.9375 0
0.625 0.9375 0
0.65625 0.9375 0
0.625 0.96875 0
0.65625 0.96875 0
0.65625 0.9375 0
0.6875 0.9375 0
0.65625 0.96875 0
0.6875 0.96875 0
0.625 0.96875 0
0.65625 0.96875 0
0.625 1 0
0.65625 1 0
0.65625 0.96875 0
0.6875 0.96875 0
0.65625 1 0
0.6875 1 0
0.6875 0.9375 0
0.71875 0.9375 0
0.6875 0.96875 0
0.71875 0.96875 0
0.71875 0.9375 0
0.75 0.9375 0
0.71875 0.96875 0
0.75 0.96875 0
0.6875 0.96875 0
0.71875 0.96875 0
0.6875 1 0
0.71875 1 0
0.71875 0.96875 0
0.75 0.96875 0
0.71875 1 0
0.75 1 0
0.75 0.75 0
0.78125 0.75 0
0.75 0.78125 0
0.78125 0.78125 0
0.78125 0.75 0
0.8125 0.75 0
0.78125 0.78125 0
0.8125 0.78125 0
0.75 0.78125 0
0.78125 0.78125 0
0.75 0.8125 0
0.78125 0.8125 0
0.78125 0.78125 0
0.8125 0.78125 0
0.78125 0.8125 0
0.8125 0.8125 0
0.8125 0.75 0
0.84375 0.75 0
0.8125 0.78125 0
0.84375 0.78125 0
0.84375 0.75 0
0.875 0.75 0
0.84375 0.78125 0
0.875 0.78125 0
0.8125 0.78125 0
0.84375 0.78125 0
0.8125 0.8125 0
0.84375 0.8125 0
0.84375 0.78125 0
0.875 0.78125 0
0.84375 0.8125 0
0.875 0.8125 0
0.75 0.8125 0
0.78125 0.8125 0
0.75 0.84375 0
0.78125 0.84375 0
0.78125 0.8125 0
0.8125 0.8125 0
0.78125 0.84375 0
0.8125 0.84375 0
0.75 0.84375 0
0.78125 0.84375 0
0.75 0.875 0
0.78125 0.875 0
0.78125 0.84375 0
0.8125 0.84375 0
0.78125 0.875 0
0.8125 0.875 0
0.8125 0.8125 0
0.84375 0.8125 0
0.8125 0.84375 0
0.84375 0.84375 0
0.84375 0.8125 0
0.875 0.8125 0
0.84375 0.84375 0
0.875 0.84375 0
0.8125 0.84375 0
0.84375 0.84375 0
0.8125 0.875 0
0.84375 0.875 0
0.84375 0.84375 0
0.875 0.84375 0
0.84375 0.875 0
0.875 0.875 0
0.875 0.75 0
0.90625 0.75 0
0.875 0.78125 0
0.90625 0.78125 0
0.90625 0.75 0
0.9375 0.75 0
0.90625 0.78125 0
0.9375 0.78125 0
0.875 0.78125 0
0.90625 0.78125 0
0.875 0.8125 0
0.90625 0.8125 0
0.90625 0.78125 0
0.9375 0.78125 0
0.90625 0.8125 0
0.9375 0.8125 0
0.9375 0.75 0
0.96875 0.75 0
0.9375 0.78125 0
0.96875 0.78125 0
0.96875 0.75 0
1 0.75 0
0.96875 0.78125 0
1 0.78125 0
0.9375 0.78125 0
0.96875 0.78125 0
0.9375 0.8125 0
0.96875 0.8125 0
0.96875 0.78125 0
1 0.78125 0
0.96875 0.8125 0
1 0.8125 0
0.875 0.8125 0
0.90625 0.8125 0
0.875 0.84375 0
0.90625 0.84375 0
0.90625 0.8125 0
0.9375 0.8125 0
0.90625 0.84375 0
0.9375 0.84375 0
0.875 0.84375 0
0.90625 0.84375 0
0.875 0.875 0
0.90625 0.875 0
0.90625 0.84375 0
0.9375 0.84375 0
0.90625 0.875 0
0.9375 0.875 0
0.9375 0.8125 0
0.96875 0.8125 0
0.9375 0.84375 0
0.96875 0.84375 0
0.96875 0.8125 0
1 0.8125 0
0.96875 0.84375 0
1 0.84375 0
0.9375 0.84375 0
0.96875 0.84375 0
0.9375 0.875 0
0.96875 0.875 0
0.96875 0.84375 0
1 0.84375 0
0.96875 0.875 0
1 0.875 0
0.75 0.875 0
0.78125 0.875 0
0.75 0.90625 0
0.78125 0.90625 0
0.78125 0.875 0
0.8125 0.875 0
0.78125 0.90625 0
0.8125 0.90625 0
0.75 0.90625 0
0.78125 0.90625 0
0.75 0.9375 0
0.78125 0.9375 0
0.78125 0.90625 0
0.8125 0.90625 0
0.78125 0.9375 0
0.8125 0.9375 0
0.8125 0.875 0
0.84375 0.875 0
0.8125 0.90625 0
0.84375 0.90625 0
0.84375 0.875 0
0.875 0.875 0
0.84375 0.90625 0
0.875 0.90625 0
0.8125 0.90625 0
0.84375 0.90625 0
0.8125 0.9375 0
0.84375 0.9375 0
0.84375 0.90625 0
0.875 0.90625 0
0.84375 0.9375 0
0.875 0.9375 0
0.75 0.9375 0
0.78125 0.9375 0
0.75 0.96875 0
0.78125 0.96875 0
0.78125 0.9375 0
0.8125 0.9375 0
0.78125 0.96875 0
0.8125 0.96875 0
0.75 0.96875 0
0.78125 0.96875 0
0.75 1 0
0.78125 1 0
0.78125 0.96875 0
0.8125 0.96875 0
0.78125 1 0
0.8125 1 0
0.8125 0.9375 0
0.84375 0.9375 0
0.8125 0.96875 0
0.84375 0.96875 0
0.84375 0.9375 0
0.875 0.9375 0
0.84375 0.96875 0
0.875 0.96875 0
0.8125 0.96875 0
0.84375 0.96875 0
0.8125 1 0
0.84375 1 0
0.84375 0.96875 0
0.875 0.96875 0
0.84375 1 0
0.875 1 0
0.875 0.875 0
0.90625 0.875 0
0.875 0.90625 0
0.90625 0.90625 0
0.90625 0.875 0
0.9375 0.875 0
0.90625 0.90625 0
0.9375 0.90625 0
0.875 0.90625 0
0.90625 0.90625 0
0.875 0.9375 0
0.90625 0.9375 0
0.90625 0.90625 0
0.9375 0.90625 0
0.90625 0.9375 0
0.9375 0.9375 0
0.9375 0.875 0
0.96875 0.875 0
0.9375 0.90625 0
0.96875 0.90625 0
0.96875 0.875 0
1 0.875 0
0.96875 0.90625 0
1 0.90625 0
0.9375 0.90625 0
0.96875 0.90625 0
0.9375 0.9375 0
0.96875 0.9375 0
0.96875 0.90625 0
1 0.90625 0
0.96875 0.9375 0
1 0.9375 0
0.875 0.9375 0
0.90625 0.9375 0
0.875 0.96875 0
0.90625 0.96875 0
0.90625 0.9375 0
0.9375 0.9375 0
0.90625 0.96875 0
0.9375 0.96875 0
0.875 0.96875 0
0.90625 0.96875 0
0.875 1 0
0.90625 1 0
0.90625 0.96875 0
0.9375 0.96875 0
0.90625 1 0
0.9375 1 0
0.9375 0.9375 0
0.96875 0.9375 0
0.9375 0.96875 0
0.96875 0.96875 0
0.96875 0.9375 0
1 0.9375 0
0.96875 0.96875 0
1 0.96875 0
0.9375 0.96875 0
0.96875 0.96875 0
0.9375 1 0
0.96875 1 0
0.96875 0.96875 0
1 0.96875 0
0.96875 1 0
1 1 0

CELLS 1024 5120
4	0	1	3	2
4	4	5	7	6
4	8	9	11	10
4	12	13	15	14
4	16	17	19	18
4	20	21	23	22
4	24	25	27	26
4	28	29	31	30
4	32	33	35	34
4	36	37	39	38
4	40	41	43	42
4	44	45	47	46
4	48	49	51	50
4	52	53	55	54
4	56	57	59	58
4	60	61	63	62
4	64	65	67	66
4	68	69	71	70
4	72	73	75	74
4	76	77	79	78
4	80	81	83	82
4	84	85	87	86
4	88	89	91	90
4	92	93	95	94
4	96	97	99	98
4	100	101	103	102
4	104	105	107	106
4	108	109	111	110
4	112	113	115	114
4	116	117	119	118
4	120	121	123	122
4	124	125	127	126
4	128	129	131	130
4	132	133	135	134
4	136	137	139	138
4	140	141	143	142
4	144	145	147	146
4	148	149	151	150
4	152	153	155	154
4	156	157	159	158
4	160	161	163	162
4	164	165	167	166
4	168	169	171	170
4	172	173	175	174
4	176	177	179	178
4	180	181	183	182
4	184	185	187	186
4	188	189	191	190
4	192	193	195	194
4	196	197	199	198
4	200	201	203	202
4	204	205	207	206
4	208	209	211	210
4	212	213	215	214
4	216	217	219	218
4	220	221	223	222
4	224	225	227	226
4	228	229	231	230
4	232	233	235	234
4	236	237	239	238
4	240	241	243	242
4	244	245	247	246
4	248	249	251	250
4	252	253	255	254
4	256	257	259	258
4	260	261	263	262
4	264	265	267	266
4	268	269	271	270
4	272	273	275	274
4	276	277	279	278
4	280	281	283	282
4	284	285	287	286
4	288	289	291	290
4	292	293	295	294
4	296	297	299	298
4	300	301	303	302
4	304	305	307	306
4	308	309	311	310
4	312	313	315	314
4	316	317	319	318
4	320	321	323	322
4	324	325	327	326
4	328	329	331	330
4	332	333	335	334
4	336	337	339	338
4	340	341	343	342
4	344	345	347	346
4	348	349	351	350
4	352	353	355	354
4	356	357	359	358
4	360	361	363	362
4	364	365	367	366
4	368	369	371	370
4	372	373	375	374
4	376	377	379	378
4	380	381	383	382
4	384	385	387	386
4	388	389	391	390
4	392	393	395	394
4	396	397	399	398
4	400	401	403	402
4	404	405	407	406
4	408	409	411	410
4	412	413	415	414
4	416	417	419	418
4	420	421	423	422
4	424	425	427	426
4	428	429	431	430
4	432	433	435	434
4	436	437	439	438
4	440	441	443	442
4	444	445	447	446
4	448	449	451	450
4	452	453	455	454
4	456	457	459	458
4	460	461	463	462
4	464	465	467	466
4	468	469	471	470
4	472	473	475	474
4	476	477	479	478
4	480	481	483	482
4	484	485	487	486
4	488	489	491	490
4	492	493	495	494
4	496	497	499	498
4	500	501	503	502
4	504	505	507	506
4	508	509	511	510
4	512	513	515	514
4	516	517	519	518
4	520	521	523	522
4	524	525	527	526
4	528	529	531	530
4	532	533	535	534
4	536	537	539	538
4	540	541	543	542
4	544	545	547	546
4	548	549	551	550
4	552	553	555	554
4	556	557	559	558
4	560	561	563	562
4	564	565	567	566
4	568	569	571	570
4	572	573	575	574
4	576	577	579	578
4	580	581	583	582
4	584	585	587	586
4	588	589	591	590
4	592	593	595	594
4	596	597	599	598
4	600	601	603	602
4	604	605	607	606
4	608	609	611	610
4	612	613	615	614
4	616	617	619	618
4	620	621	623	622
4	624	625	627	626
4	628	629	631	630
4	632	633	635	634
4	636	637	639	638
4	640	641	643	642
4	644	645	647	646
4	648	649	651	650
4	652	653	655	654
4	656	657	659	658
4	660	661	663	662
4	664	665	667	666
4	668	669	671	670
4	672	673	675	674
4	676	677	679	678
4	680	681	683	682
4	684	685	687	686
4	688	689	691	690
4	692	693	695	694
4	696	697	699	698
4	700	701	703	702
4	704	705	707	706
4	708	709	711	710
4	712	713	715	714
4	716	717	719	718
4	720	721	723	722
4	724	725	727	726
4	728	729	731	730
4	732	733	735	734
4	736	737	739	738
4	740	741	743	742
4	744	745	747	746
4	748	749	751	750
4	752	753	755	754
4	756	757	759	758
4	760	761	763	762
4	764	765	767	766
4	768	769	771	770
4	772	773	775	774
4	776	777	779	778
4	780	781	783	782
4	784	785	787	786
4	788	789	791	790
4	792	793	795	794
4	796	797	799	798
4	800	801	803	802
4	804	805	807	806
4	808	809	811	810
4	812	813	815	814
4	816	817	819	818
4	820	821	823	822
4	824	825	827	826
4	828	829	831	830
4	832	833	835	834
4	836	837	839	838
4	840	841	843	842
4	844	845	847	846
4	848	849	851	850
4	852	853	855	854
4	856	857	859	858
4	860	861	863	862
4	864	865	867	866
4	868	869	871	870
4	872	873	875	874
4	876	877	879	878
4	880	881	883	882
4	884	885	887	886
4	888	889	891	890
4	892	893	895	894
4	896	897	899	898
4	900	901	903	902
4	904	905	907	906
4	908	909	911	910
4	912	913	915	914
4	916	917	919	918
4	920	921	923	922
4	924	925	927	926
4	928	929	931	930
4	932	933	935	934
4	936	937	939	938
4	940	941	943	942
4	944	945	947	946
4	948	949	951	950
4	952	953	955	954
4	956	957	959	958
4	960	961	963	962
4	964	965	967	966
4	968	969	971	970
4	972	973	975	974
4	976	977	979	978
4	980	981	983	982
4	984	985	987	986
4	988	989	991	990
4	992	993	995	994
4	996	997	999	998
4	1000	1001	1003	1002
4	1004	1005	1007	1006
4	1008	1009	1011	1010
4	1012	1013	1015	1014
4	1016	1017	1019	1018
4	1020	1021	1023	1022
4	1024	1025	1027	1026
4	1028	1029	1031	1030
4	1032	1033	1035	1034
4	1036	1037	1039	1038
4	1040	1041	1043	1042
4	1044	1045	1047	1046
4	1048	1049	1051	1050
4	1052	1053	1055	1054
4	1056	1057	1059	1058
4	1060	1061	1063	1062
4	1064	1065	1067	1066
4	1068	1069	1071	1070
4	1072	1073	1075	1074
4	1076	1077	1079	1078
4	1080	1081	1083	1082
4	1084	1085	1087	1086
4	1088	1089	1091	1090
4	1092	1093	1095	1094
4	1096	1097	1099	1098
4	1100	1101	1103	1102
4	1104	1105	1107	1106
4	1108	1109	1111	1110
4	1112	1113	1115	1114
4	1116	1117	1119	1118
4	1120	1121	1123	1122
4	1124	1125	1127	1126
4	1128	1129	1131	1130
4	1132	1133	1135	1134
4	1136	1137	1139	1138
4	1140	1141	1143	1142
4	1144	1145	1147	1146
4	1148	1149	1151	1150
4	1152	1153	1155	1154
4	1156	1157	1159	1158
4	1160	1161	1163	1162
4	1164	1165	1167	1166
4	1168	1169	1171	1170
4	1172	1173	1175	1174
4	1176	1177	1179	1178
4	1180	1181	1183	1182
4	1184	1185	1187	1186
4	1188	1189	1191	1190
4	1192	1193	1195	1194
4	1196	1197	1199	1198
4	1200	1201	1203	1202
4	1204	1205	1207	1206
4	1208	1209	1211	1210
4	1212	1213	1215	1214
4	1216	1217	1219	1218
4	1220	1221	1223	1222
4	1224	1225	1227	1226
4	1228	1229	1231	1230
4	1232	1233	1235	1234
4	1236	1237	1239	1238
4	1240	1241	1243	1242
4	1244	1245	1247	1246
4	1248	1249	1251	1250
4	1252	1253	1255	1254
4	1256	1257	1259	1258
4	1260	1261	1263	1262
4	1264	1265	1267	1266
4	1268	1269	1271	1270
4	1272	1273	1275	1274
4	1276	1277	1279	1278
4	1280	1281	1283	1282
4	1284	1285	1287	1286
4	1288	1289	1291	1290
4	1292	1293	1295	1294
4	1296	1297	1299	1298
4	1300	1301	1303	1302
4	1304	1305	1307	1306
4	1308	1309	1311	1310
4	1312	1313	1315	1314
4	1316	1317	1319	1318
4	1320	1321	1323	1322
4	1324	1325	1327	1326
4	1328	1329	1331	1330
4	1332	1333	1335	1334
4	1336	1337	1339	1338
4	1340	1341	1343	1342
4	1344	1345	1347	1346
4	1348	1349	1351	1350
4	1352	1353	1355	1354
4	1356	1357	1359	1358
4	1360	1361	1363	1362
4	1364	1365	1367	1366
4	1368	1369	1371	1370
4	1372	1373	1375	1374
4	1376	1377	1379	1378
4	1380	1381	1383	1382
4	1384	1385	1387	1386
4	1388	1389	1391	1390
4	1392	1393	1395	1394
4	1396	1397	1399	1398
4	1400	1401	1403	1402
4	1404	1405	1407	1406
4	1408	1409	1411	1410
4	1412	1413	1415	1414
4	1416	1417	1419	1418
4	1420	1421	1423	1422
4	1424	1425	1427	1426
4	1428	1429	1431	1430
4	1432	1433	1435	1434
4	1436	1437	1439	1438
4	1440	1441	1443	1442
4	1444	1445	1447	1446
4	1448	1449	1451	1450
4	1452	1453	1455	1454
4	1456	1457	1459	1458
4	1460	1461	1463	1462
4	1464	1465	1467	1466
4	1468	1469	1471	1470
4	1472	1473	1475	1474
4	1476	1477	1479	1478
4	1480	1481	1483	1482
4	1484	1485	1487	1486
4	1488	1489	1491	1490
4	1492	1493	1495	1494
4	1496	1497	1499	1498
4	1500	1501	1503	1502
4	1504	1505	1507	1506
4	1508	1509	1511	1510
4	1512	1513	1515	1514
4	1516	1517	1519	1518
4	1520	1521	1523	1522
4	1524	1525	1527	1526
4	1528	1529	1531	1530
4	1532	1533	1535	1534
4	1536	1537	1539	1538
4	1540	1541	1543	1542
4	1544	1545	1547	1546
4	1548	1549	1551	1550
4	1552	1553	1555	1554
4	1556	1557	1559	1558
4	1560	1561	1563	1562
4	1564	1565	1567	1566
4	1568	1569	1571	1570
4	1572	1573	1575	1574
4	1576	1577	1579	1578
4	1580	1581	1583	1582
4	1584	1585	1587	1586
4	1588	1589	1591	1590
4	1592	1593	1595	1594
4	1596	1597	1599	1598
4	1600	1601	1603	1602
4	1604	1605	1607	1606
4	1608	1609	1611	1610
4	1612	1613	1615	1614
4	1616	1617	1619	1618
4	1620	1621	1623	1622
4	1624	1625	1627	1626
4	1628	1629	1631	1630
4	1632	1633	1635	1634
4	1636	1637	1639	1638
4	1640	1641	1643	1642
4	1644	1645	1647	1646
4	1648	1649	1651	1650
4	1652	1653	1655	1654
4	1656	1657	1659	1658
4	1660	1661	1663	1662
4	1664	1665	1667	1666
4	1668	1669	1671	1670
4	1672	1673	1675	1674
4	1676	1677	1679	1678
4	1680	1681	1683	1682
4	1684	1685	1687	1686
4	1688	1689	1691	1690
4	1692	1693	1695	1694
4	1696	1697	1699	1698
4	1700	1701	1703	1702
4	1704	1705	1707	1706
4	1708	1709	1711	1710
4	1712	1713	1715	1714
4	1716	1717	1719	1718
4	1720	1721	1723	1722
4	1724	1725	1727	1726
4	1728	1729	1731	1730
4	1732	1733	1735	1734
4	1736	1737	1739	1738
4	1740	1741	1743	1742
4	1744	1745	1747	1746
4	1748	1749	1751	1750
4	1752	1753	1755	1754
4	1756	1757	1759	1758
4	1760	1761	1763	1762
4	1764	1765	1767	1766
4	1768	1769	1771	1770
4	1772	1773	1775	1774
4	1776	1777	1779	1778
4	1780	1781	1783	1782
4	1784	1785	1787	1786
4	1788	1789	1791	1790
4	1792	1793	1795	1794
4	1796	1797	1799	1798
4	1800	1801	1803	1802
4	1804	1805	1807	1806
4	1808	1809	1811	1810
4	1812	1813	1815	1814
4	1816	1817	1819	1818
4	1820	1821	1823	1822
4	1824	1825	1827	1826
4	1828	1829	1831	1830
4	1832	1833	1835	1834
4	1836	1837	1839	1838
4	1840	1841	1843	1842
4	1844	1845	1847	1846
4	1848	1849	1851	1850
4	1852	1853	1855	1854
4	1856	1857	1859	1858
4	1860	1861	1863	1862
4	1864	1865	1867	1866
4	1868	1869	1871	1870
4	1872	1873	1875	1874
4	1876	1877	1879	1878
4	1880	1881	1883	1882
4	1884	1885	1887	1886
4	1888	1889	1891	1890
4	1892	1893	1895	1894
4	1896	1897	1899	1898
4	1900	1901	1903	1902
4	1904	1905	1907	1906
4	1908	1909	1911	1910
4	1912	1913	1915	1914
4	1916	1917	1919	1918
4	1920	1921	1923	1922
4	1924	1925	1927	1926
4	1928	1929	1931	1930
4	1932	1933	1935	1934
4	1936	1937	1939	1938
4	1940	1941	1943	1942
4	1944	1945	1947	1946
4	1948	1949	1951	1950
4	1952	1953	1955	1954
4	1956	1957	1959	1958
4	1960	1961	1963	1962
4	1964	1965	1967	1966
4	1968	1969	1971	1970
4	1972	1973	1975	1974
4	1976	1977	1979	1978
4	1980	1981	1983	1982
4	1984	1985	1987	1986
4	1988	1989	1991	1990
4	1992	1993	1995	1994
4	1996	1997	1999	1998
4	2000	2001	2003	2002
4	2004	2005	2007	2006
4	2008	2009	2011	2010
4	2012	2013	2015	2014
4	2016	2017	2019	2018
4	2020	2021	2023	2022
4	2024	2025	2027	2026
4	2028	2029	2031	2030
4	2032	2033	2035	2034
4	2036	2037	2039	2038
4	2040	2041	2043	2042
4	2044	2045	2047	2046
4	2048	2049	2051	2050
4	2052	2053	2055	2054
4	2056	2057	2059	2058
4	2060	2061	2063	2062
4	2064	2065	2067	2066
4	2068	2069	2071	2070
4	2072	2073	2075	2074
4	2076	2077	2079	2078
4	2080	2081	2083	2082
4	2084	2085	2087	2086
4	2088	2089	2091	2090
4	2092	2093	2095	2094
4	2096	2097	2099	2098
4	2100	2101	2103	2102
4	2104	2105	2107	2106
4	2108	2109	2111	2110
4	2112	2113	2115	2114
4	2116	2117	2119	2118
4	2120	2121	2123	2122
4	2124	2125	2127	2126
4	2128	2129	2131	2130
4	2132	2133	2135	2134
4	2136	2137	2139	2138
4	2140	2141	2143	2142
4	2144	2145	2147	2146
4	2148	2149	2151	2150
4	2152	2153	2155	2154
4	2156	2157	2159	2158
4	2160	2161	2163	2162
4	2164	2165	2167	2166
4	2168	2169	2171	2170
4	2172	2173	2175	2174
4	2176	2177	2179	2178
4	2180	2181	2183	2182
4	2184	2185	2187	2186
4	2188	2189	2191	2190
4	2192	2193	2195	2194
4	2196	2197	2199	2198
4	2200	2201	2203	2202
4	2204	2205	2207	2206
4	2208	2209	2211	2210
4	2212	2213	2215	2214
4	2216	2217	2219	2218
4	2220	2221	2223	2222
4	2224	2225	2227	2226
4	2228	2229	2231	2230
4	2232	2233	2235	2234
4	2236	2237	2239	2238
4	2240	2241	2243	2242
4	2244	2245	2247	2246
4	2248	2249	2251	2250
4	2252	2253	2255	2254
4	2256	2257	2259	2258
4	2260	2261	2263	2262
4	2264	2265	2267	2266
4	2268	2269	2271	2270
4	2272	2273	2275	2274
4	2276	2277	2279	2278
4	2280	2281	2283	2282
4	2284	2285	2287	2286
4	2288	2289	2291	2290
4	2292	2293	2295	2294
4	2296	2297	2299	2298
4	2300	2301	2303	2302
4	2304	2305	2307	2306
4	2308	2309	2311	2310
4	2312	2313	2315	2314
4	2316	2317	2319	2318
4	2320	2321	2323	2322
4	2324	2325	2327	2326
4	2328	2329	2331	2330
4	2332	2333	2335	2334
4	2336	2337	2339	2338
4	2340	2341	2343	2342
4	2344	2345	2347	2346
4	2348	2349	2351	2350
4	2352	2353	2355	2354
4	2356	2357	2359	2358
4	2360	2361	2363	2362
4	2364	2365	2367	2366
4	2368	2369	2371	2370
4	2372	2373	2375	2374
4	2376	2377	2379	2378
4	2380	2381	2383	2382
4	2384	2385	2387	2386
4	2388	2389	2391	2390
4	2392	2393	2395	2394
4	2396	2397	2399	2398
4	2400	2401	2403	2402
4	2404	2405	2407	2406
4	2408	2409	2411	2410
4	2412	2413	2415	2414
4	2416	2417	2419	2418
4	2420	2421	2423	2422
4	2424	2425	2427	2426
4	2428	2429	2431	2430
4	2432	2433	2435	2434
4	2436	2437	2439	2438
4	2440	2441	2443	2442
4	2444	2445	2447	2446
4	2448	2449	2451	2450
4	2452	2453	2455	2454
4	2456	2457	2459	2458
4	2460	2461	2463	2462
4	2464	2465	2467	2466
4	2468	2469	2471	2470
4	2472	2473	2475	2474
4	2476	2477	2479	2478
4	2480	2481	2483	2482
4	2484	2485	2487	2486
4	2488	2489	2491	2490
4	2492	2493	2495	2494
4	2496	2497	2499	2498
4	2500	2501	2503	2502
4	2504	2505	2507	2506
4	2508	2509	2511	2510
4	2512	2513	2515	2514
4	2516	2517	2519	2518
4	2520	2521	2523	2522
4	2524	2525	2527	2526
4	2528	2529	2531	2530
4	2532	2533	2535	2534
4	2536	2537	2539	2538
4	2540	2541	2543	2542
4	2544	2545	2547	2546
4	2548	2549	2551	2550
4	2552	2553	2555	2554
4	2556	2557	2559	2558
4	2560	2561	2563	2562
4	2564	2565	2567	2566
4	2568	2569	2571	2570
4	2572	2573	2575	2574
4	2576	2577	2579	2578
4	2580	2581	2583	2582
4	2584	2585	2587	2586
4	2588	2589	2591	2590
4	2592	2593	2595	2594
4	2596	2597	2599	2598
4	2600	2601	2603	2602
4	2604	2605	2607	2606
4	2608	2609	2611	2610
4	2612	2613	2615	2614
4	2616	2617	2619	2618
4	2620	2621	2623	2622
4	2624	2625	2627	2626
4	2628	2629	2631	2630
4	2632	2633	2635	2634
4	2636	2637	2639	2638
4	2640	2641	2643	2642
4	2644	2645	2647	2646
4	2648	2649	2651	2650
4	2652	2653	2655	2654
4	2656	2657	2659	2658
4	2660	2661	2663	2662
4	2664	2665	2667	2666
4	2668	2669	2671	2670
4	2672	2673	2675	2674
4	2676	2677	2679	2678
4	2680	2681	2683	2682
4	2684	2685	2687	2686
4	2688	2689	2691	2690
4	2692	2693	2695	2694
4	2696	2697	2699	2698
4	2700	2701	2703	2702
4	2704	2705	2707	2706
4	2708	2709	2711	2710
4	2712	2713	2715	2714
4	2716	2717	2719	2718
4	2720	2721	2723	2722
4	2724	2725	2727	2726
4	2728	2729	2731	2730
4	2732	2733	2735	2734
4	2736	2737	2739	2738
4	2740	2741	2743	2742
4	2744	2745	2747	2746
4	2748	2749	2751	2750
4	2752	2753	2755	2754
4	2756	2757	2759	2758
4	2760	2761	2763	2762
4	2764	2765	2767	2766
4	2768	2769	2771	2770
4	2772	2773	2775	2774
4	2776	2777	2779	2778
4	2780	2781	2783	2782
4	2784	2785	2787	2786
4	2788	2789	2791	2790
4	2792	2793	2795	2794
4	2796	2797	2799	2798
4	2800	2801	2803	2802
4	2804	2805	2807	2806
4	2808	2809	2811	2810
4	2812	2813	2815	2814
4	2816	2817	2819	2818
4	2820	2821	2823	2822
4	2824	2825	2827	2826
4	2828	2829	2831	2830
4	2832	2833	2835	2834
4	2836	2837	2839	2838
4	2840	2841	2843	2842
4	2844	2845	2847	2846
4	2848	2849	2851	2850
4	2852	2853	2855	2854
4	2856	2857	2859	2858
4	2860	2861	2863	2862
4	2864	2865	2867	2866
4	2868	2869	2871	2870
4	2872	2873	2875	2874
4	2876	2877	2879	2878
4	2880	2881	2883	2882
4	2884	2885	2887	2886
4	2888	2889	2891	2890
4	2892	2893	2895	2894
4	2896	2897	2899	2898
4	2900	2901	2903	2902
4	2904	2905	2907	2906
4	2908	2909	2911	2910
4	2912	2913	2915	2914
4	2916	2917	2919	2918
4	2920	2921	2923	2922
4	2924	2925	2927	2926
4	2928	2929	2931	2930
4	2932	2933	2935	2934
4	2936	2937	2939	2938
4	2940	2941	2943	2942
4	2944	2945	2947	2946
4	2948	2949	2951	2950
4	2952	2953	2955	2954
4	2956	2957	2959	2958
4	2960	2961	2963	2962
4	2964	2965	2967	2966
4	2968	2969	2971	2970
4	2972	2973	2975	2974
4	2976	2977	2979	2978
4	2980	2981	2983	2982
4	2984	2985	2987	2986
4	2988	2989	2991	2990
4	2992	2993	2995	2994
4	2996	2997	2999	2998
4	3000	3001	3003	3002
4	3004	3005	3007	3006
4	3008	3009	3011	3010
4	3012	3013	3015	3014
4	3016	3017	3019	3018
4	3020	3021	3023	3022
4	3024	3025	3027	3026
4	3028	3029	3031	3030
4	3032	3033	3035	3034
4	3036	3037	3039	3038
4	3040	3041	3043	3042
4	3044	3045	3047	3046
4	3048	3049	3051	3050
4	3052	3053	3055	3054
4	3056	3057	3059	3058
4	3060	3061	3063	3062
4	3064	3065	3067	3066
4	3068	3069	3071	3070
4	3072	3073	3075	3074
4	3076	3077	3079	3078
4	3080	3081	3083	3082
4	3084	3085	3087	3086
4	3088	3089	3091	3090
4	3092	3093	3095	3094
4	3096	3097	3099	3098
4	3100	3101	3103	3102
4	3104	3105	3107	3106
4	3108	3109	3111	3110
4	3112	3113	3115	3114
4	3116	3117	3119	3118
4	3120	3121	3123	3122
4	3124	3125	3127	3126
4	3128	3129	3131	3130
4	3132	3133	3135	3134
4	3136	3137	3139	3138
4	3140	3141	3143	3142
4	3144	3145	3147	3146
4	3148	3149	3151	3150
4	3152	3153	3155	3154
4	3156	3157	3159	3158
4	3160	3161	3163	3162
4	3164	3165	3167	3166
4	3168	3169	3171	3170
4	3172	3173	3175	3174
4	3176	3177	3179	3178
4	3180	3181	3183	3182
4	3184	3185	3187	3186
4	3188	3189	3191	3190
4	3192	3193	3195	3194
4	3196	3197	3199	3198
4	3200	3201	3203	3202
4	3204	3205	3207	3206
4	3208	3209	3211	3210
4	3212	3213	3215	3214
4	3216	3217	3219	3218
4	3220	3221	3223	3222
4	3224	3225	3227	3226
4	3228	3229	3231	3230
4	3232	3233	3235	3234
4	3236	3237	3239	3238
4	3240	3241	3243	3242
4	3244	3245	3247	3246
4	3248	3249	3251	3250
4	3252	3253	3255	3254
4	3256	3257	3259	3258
4	3260	3261	3263	3262
4	3264	3265	3267	3266
4	3268	3269	3271	3270
4	3272	3273	3275	3274
4	3276	3277	3279	3278
4	3280	3281	3283	3282
4	3284	3285	3287	3286
4	3288	3289	3291	3290
4	3292	3293	3295	3294
4	3296	3297	3299	3298
4	3300	3301	3303	3302
4	3304	3305	3307	3306
4	3308	3309	3311	3310
4	3312	3313	3315	3314
4	3316	3317	3319	3318
4	3320	3321	3323	3322
4	3324	3325	3327	3326
4	3328	3329	3331	3330
4	3332	3333	3335	3334
4	3336	3337	3339	3338
4	3340	3341	3343	3342
4	3344	3345	3347	3346
4	3348	3349	3351	3350
4	3352	3353	3355	3354
4	3356	3357	3359	3358
4	3360	3361	3363	3362
4	3364	3365	3367	3366
4	3368	3369	3371	3370
4	3372	3373	3375	3374
4	3376	3377	3379	3378
4	3380	3381	3383	3382
4	3384	3385	3387	3386
4	3388	3389	3391	3390
4	3392	3393	3395	3394
4	3396	3397	3399	3398
4	3400	3401	3403	3402
4	3404	3405	3407	3406
4	3408	3409	3411	3410
4	3412	3413	3415	3414
4	3416	3417	3419	3418
4	3420	3421	3423	3422
4	3424	3425	3427	3426
4	3428	3429	3431	3430
4	3432	3433	3435	3434
4	3436	3437	3439	3438
4	3440	3441	3443	3442
4	3444	3445	3447	3446
4	3448	3449	3451	3450
4	3452	3453	3455	3454
4	3456	3457	3459	3458
4	3460	3461	3463	3462
4	3464	3465	3467	3466
4	3468	3469	3471	3470
4	3472	3473	3475	3474
4	3476	3477	3479	3478
4	3480	3481	3483	3482
4	3484	3485	3487	3486
4	3488	3489	3491	3490
4	3492	3493	3495	3494
4	3496	3497	3499	3498
4	3500	3501	3503	3502
4	3504	3505	3507	3506
4	3508	3509	3511	3510
4	3512	3513	3515	3514
4	3516	3517	3519	3518
4	3520	3521	3523	3522
4	3524	3525	3527	3526
4	3528	3529	3531	3530
4	3532	3533	3535	3534
4	3536	3537	3539	3538
4	3540	3541	3543	3542
4	3544	3545	3547	3546
4	3548	3549	3551	3550
4	3552	3553	3555	3554
4	3556	3557	3559	3558
4	3560	3561	3563	3562
4	3564	3565	3567	3566
4	3568	3569	3571	3570
4	3572	3573	3575	3574
4	3576	3577	3579	3578
4	3580	3581	3583	3582
4	3584	3585	3587	3586
4	3588	3589	3591	3590
4	3592	3593	3595	3594
4	3596	3597	3599	3598
4	3600	3601	3603	3602
4	3604	3605	3607	3606
4	3608	3609	3611	3610
4	3612	3613	3615	3614
4	3616	3617	3619	3618
4	3620	3621	3623	3622
4	3624	3625	3627	3626
4	3628	3629	3631	3630
4	3632	3633	3635	3634
4	3636	3637	3639	3638
4	3640	3641	3643	3642
4	3644	3645	3647	3646
4	3648	3649	3651	3650
4	3652	3653	3655	3654
4	3656	3657	3659	3658
4	3660	3661	3663	3662
4	3664	3665	3667	3666
4	3668	3669	3671	3670
4	3672	3673	3675	3674
4	3676	3677	3679	3678
4	3680	3681	3683	3682
4	3684	3685	3687	3686
4	3688	3689	3691	3690
4	3692	3693	3695	3694
4	3696	3697	3699	3698
4	3700	3701	3703	3702
4	3704	3705	3707	3706
4	3708	3709	3711	3710
4	3712	3713	3715	3714
4	3716	3717	3719	3718
4	3720	3721	3723	3722
4	3724	3725	3727	3726
4	3728	3729	3731	3730
4	3732	3733	3735	3734
4	3736	3737	3739	3738
4	3740	3741	3743	3742
4	3744	3745	3747	3746
4	3748	3749	3751	3750
4	3752	3753	3755	3754
4	3756	3757	3759	3758
4	3760	3761	3763	3762
4	3764	3765	3767	3766
4	3768	3769	3771	3770
4	3772	3773	3775	3774
4	3776	3777	3779	3778
4	3780	3781	3783	3782
4	3784	3785	3787	3786
4	3788	3789	3791	3790
4	3792	3793	3795	3794
4	3796	3797	3799	3798
4	3800	3801	3803	3802
4	3804	3805	3807	3806
4	3808	3809	3811	3810
4	3812	3813	3815	3814
4	3816	3817	3819	3818
4	3820	3821	3823	3822
4	3824	3825	3827	3826
4	3828	3829	3831	3830
4	3832	3833	3835	3834
4	3836	3837	3839	3838
4	3840	3841	3843	3842
4	3844	3845	3847	3846
4	3848	3849	3851	3850
4	3852	3853	3855	3854
4	3856	3857	3859	3858
4	3860	3861	3863	3862
4	3864	3865	3867	3866
4	3868	3869	3871	3870
4	3872	3873	3875	3874
4	3876	3877	3879	3878
4	3880	3881	3883	3882
4	3884	3885	3887	3886
4	3888	3889	3891	3890
4	3892	3893	3895	3894
4	3896	3897	3899	3898
4	3900	3901	3903	3902
4	3904	3905	3907	3906
4	3908	3909	3911	3910
4	3912	3913	3915	3914
4	3916	3917	3919	3918
4	3920	3921	3923	3922
4	3924	3925	3927	3926
4	3928	3929	3931	3930
4	3932	3933	3935	3934
4	3936	3937	3939	3938
4	3940	3941	3943	3942
4	3944	3945	3947	3946
4	3948	3949	3951	3950
4	3952	3953	3955	3954
4	3956	3957	3959	3958
4	3960	3961	3963	3962
4	3964	3965	3967	3966
4	3968	3969	3971	3970
4	3972	3973	3975	3974
4	3976	3977	3979	3978
4	3980	3981	3983	3982
4	3984	3985	3987	3986
4	3988	3989	3991	3990
4	3992	3993	3995	3994
4	3996	3997	3999	3998
4	4000	4001	4003	4002
4	4004	4005	4007	4006
4	4008	4009	4011	4010
4	4012	4013	4015	4014
4	4016	4017	4019	4018
4	4020	4021	4023	4022
4	4024	4025	4027	4026
4	4028	4029	4031	4030
4	4032	4033	4035	4034
4	4036	4037	4039	4038
4	4040	4041	4043	4042
4	4044	4045	4047	4046
4	4048	4049	4051	4050
4	4052	4053	4055	4054
4	4056	4057	4059	4058
4	4060	4061	4063	4062
4	4064	4065	4067	4066
4	4068	4069	4071	4070
4	4072	4073	4075	4074
4	4076	4077	4079	4078
4	4080	4081	4083	4082
4	4084	4085	4087	4086
4	4088	4089	4091	4090
4	4092	4093	4095	4094

CELL_TYPES 1024
 9 9 9 9 9 9 9 9 9 9 9 9 9 9 9 9 9 9 9 9 9 9 9 9 9 9 9 9 9 9 9 9 9 9 9 9 9 9 9 9 9 9 9 9 9 9 9 9 9 9 9 9 9 9 9 9 9 9 9 9 9 9 9 9 9 9 9 9 9 9 9 9 9 9 9 9 9 9 9 9 9 9 9 9 9 9 9 9 9 9 9 9 9 9 9 9 9 9 9 9 9 9 9 9 9 9 9 9 9 9 9 9 9 9 9 9 9 9 9 9 9 9 9 9 9 9 9 9 9 9 9 9 9 9 9 9 9 9 9 9 9 9 9 9 9 9 9 9 9 9 9 9 9 9 9 9 9 9 9 9 9 9 9 9 9 9 9 9 9 9 9 9 9 9 9 9 9 9 9 9 9 9 9 9 9 9 9 9 9 9 9 9 9 9 9 9 9 9 9 9 9 9 9 9 9 9 9 9 9 9 9 9 9 9 9 9 9 9 9 9 9 9 9 9 9 9 9 9 9 9 9 9 9 9 9 9 9 9 9 9 9 9 9 9 9 9 9 9 9 9 9 9 9 9 9 9 9 9 9 9 9 9 9 9 9 9 9 9 9 9 9 9 9 9 9 9 9 9 9 9 9 9 9 9 9 9 9 9 9 9 9 9 9 9 9 9 9 9 9 9 9 9 9 9 9 9 9 9 9 9 9 9 9 9 9 9 9 9 9 9 9 9 9 9 9 9 9 9 9 9 9 9 9 9 9 9 9 9 9 9 9 9 9 9 9 9 9 9 9 9 9 9 9 9 9 9 9 9 9 9 9 9 9 9 9 9 9 9 9 9 9 9 9 9 9 9 9 9 9 9 9 9 9 9 9 9 9 9 9 9 9 9 9 9 9 9 9 9 9 9 9 9 9 9 9 9 9 9 9 9 9 9 9 9 9 9 9 9 9 9 9 9 9 9 9 9 9 9 9 9 9 9 9 9 9 9 9 9 9 9 9 9 9 9 9 9 9 9 9 9 9 9 9 9 9 9 9 9 9 9 9 9 9 9 9 9 9 9 9 9 9 9 9 9 9 9 9 9 9 9 9 9 9 9 9 9 9 9 9 9 9 9 9 9 9 9 9 9 9 9 9 9 9 9 9 9 9 9 9 9 9 9 9 9 9 9 9 9 9 9 9 9 9 9 9 9 9 9 9 9 9 9 9 9 9 9 9 9 9 9 9 9 9 9 9 9 9 9 9 9 9 9 9 9 9 9 9 9 9 9 9 9 9 9 9 9 9 9 9 9 9 9 9 9 9 9 9 9 9 9 9 9 9 9 9 9 9 9 9 9 9 9 9 9 9 9 9 9 9 9 9 9 9 9 9 9 9 9 9 9 9 9 9 9 9 9 9 9 9 9 9 9 9 9 9 9 9 9 9 9 9 9 9 9 9 9 9 9 9 9 9 9 9 9 9 9 9 9 9 9 9 9 9 9 9 9 9 9 9 9 9 9 9 9 9 9 9 9 9 9 9 9 9 9 9 9 9 9 9 9 9 9 9 9 9 9 9 9 9 9 9 9 9 9 9 9 9 9 9 9 9 9 9 9 9 9 9 9 9 9 9 9 9 9 9 9 9 9 9 9 9 9 9 9 9 9 9 9 9 9 9 9 9 9 9 9 9 9 9 9 9 9 9 9 9 9 9 9 9 9 9 9 9 9 9 9 9 9 9 9 9 9 9 9 9 9 9 9 9 9 9 9 9 9 9 9 9 9 9 9 9 9 9 9 9 9 9 9 9 9 9 9 9 9 9 9 9 9 9 9 9 9 9 9 9 9 9 9 9 9 9 9 9 9 9 9 9 9 9 9 9 9 9 9 9 9 9 9 9 9 9 9 9 9 9 9 9 9 9 9 9 9 9 9 9 9 9 9 9 9 9 9 9 9 9 9 9 9 9 9 9 9 9 9 9 9 9 9 9 9 9 9 9 9 9 9 9 9 9 9 9 9 9 9 9 9 9 9 9 9 9 9 9 9 9 9 9 9 9 9 9 9 9 9 9 9 9 9 9 9 9 9 9 9 9 9 9 9 9 9 9 9 9 9 9 9 9 9 9 9 9 9 9 9 9 9 9 9 9 9 9 9 9 9 9 9 9 9 9 9 9 9 9 9 9 9 9 9 9 9 9 9 9 9 9 9 9 9 9 9 9 9 9 9 9 9 9 9 9 9 9 9 9 9 9 9 9 9 9 9 9 9 9 9 9 9 9 9 9 9 9 9 9 9 9 9 9 9 9 9 9 9 9 9 9 9 9 9 9 9 9 9 9 9
POINT_DATA 4096
VECTORS U double
0 0 0
0 0 0
0 0 0
-0.00212364 0.00531599 0
0 0 0
0 0 0
-0.00212364 0.00531599 0
-0.0115724 0.0105317 0
0 0 0
-0.00212364 0.00531599 0
0 0 0
-0.00416714 0.0179342 0
-0.00212364 0.00531599 0
-0.0115724 0.0105317 0
-0.00416714 0.0179342 0
-0.0227151 0.0353877 0
0 0 0
0 0 0
-0.0115724 0.0105317 0
-0.0279699 0.0154524 0
0 0 0
0 0 0
-0.0279699 0.0154524 0
-0.0506471 0.0199208 0
-0.0115724 0.0105317 0
-0.0279699 0.0154524 0
-0.0227151 0.0353877 0
-0.0548693 0.0517069 0
-0.0279699 0.0154524 0
-0.0506471 0.0199208 0
-0.0548693 0.0517069 0
-0.0993169 0.0663223 0
0 0 0
-0.00416714 0.0179342 0
0 0 0
-0.00597556 0.0374427 0
-0.00416714 0.0179342 0
-0.0227151 0.0353877 0
-0.00597556 0.0374427 0
-0.0328412 0.0737322 0
0 0 0
-0.00597556 0.0374427 0
0 0 0
-0.00742239 0.0631409 0
-0.00597556 0.0374427 0
-0.0328412 0.0737322 0
-0.00742239 0.0631409 0
-0.0414435 0.124191 0
-0.0227151 0.0353877 0
-0.0548693 0.0517069 0
-0.0328412 0.0737322 0
-0.0794463 0.107523 0
-0.0548693 0.0517069 0
-0.0993169 0.0663223 0
-0.0794463 0.107523 0
-0.143879 0.137605 0
-0.0328412 0.0737322 0
-0.0794463 0.107523 0
-0.0414435 0.124191 0
-0.100582 0.180899 0
-0.0794463 0.107523 0
-0.143879 0.137605 0
-0.100582 0.180899 0
-0.182399 0.231212 0
0 0 0
0 0 0
-0.0506471 0.0199208 0
-0.0786873 0.0238033 0
0 0 0
0 0 0
-0.0786873 0.0238033 0
-0.110968 0.0269901 0
-0.0506471 0.0199208 0
-0.0786873 0.0238033 0
-0.0993169 0.0663223 0
-0.154265 0.0787457 0
-0.0786873 0.0238033 0
-0.110968 0.0269901 0
-0.154265 0.0787457 0
-0.217518 0.0885777 0
0 0 0
0 0 0
-0.110968 0.0269901 0
-0.146205 0.0293977 0
0 0 0
0 0 0
-0.146205 0.0293977 0
-0.183004 0.0309708 0
-0.110968 0.0269901 0
-0.146205 0.0293977 0
-0.217518 0.0885777 0
-0.286563 0.0955182 0
-0.146205 0.0293977 0
-0.183004 0.0309708 0
-0.286563 0.0955182 0
-0.35867 0.0993745 0
-0.0993169 0.0663223 0
-0.154265 0.0787457 0
-0.143879 0.137605 0
-0.223538 0.162931 0
-0.154265 0.0787457 0
-0.217518 0.0885777 0
-0.223538 0.162931 0
-0.315242 0.182643 0
-0.143879 0.137605 0
-0.223538 0.162931 0
-0.182399 0.231212 0
-0.283586 0.273342 0
-0.223538 0.162931 0
-0.315242 0.182643 0
-0.283586 0.273342 0
-0.400095 0.305825 0
-0.217518 0.0885777 0
-0.286563 0.0955182 0
-0.315242 0.182643 0
-0.415348 0.196099 0
-0.286563 0.0955182 0
-0.35867 0.0993745 0
-0.415348 0.196099 0
-0.519899 0.202892 0
-0.315242 0.182643 0
-0.415348 0.196099 0
-0.400095 0.305825 0
-0.527298 0.327562 0
-0.415348 0.196099 0
-0.519899 0.202892 0
-0.527298 0.327562 0
-0.660164 0.337864 0
0 0 0
-0.00742239 0.0631409 0
0 0 0
-0.00840334 0.0940825 0
-0.00742239 0.0631409 0
-0.0414435 0.124191 0
-0.00840334 0.0940825 0
-0.0480926 0.184913 0
0 0 0
-0.00840334 0.0940825 0
0 0 0
-0.00883686 0.129117 0
-0.00840334 0.0940825 0
-0.0480926 0.184913 0
-0.00883686 0.129117 0
-0.0524453 0.253645 0
-0.0414435 0.124191 0
-0.100582 0.180899 0
-0.0480926 0.184913 0
-0.117318 0.269148 0
-0.100582 0.180899 0
-0.182399 0.231212 0
-0.117318 0.269148 0
-0.213206 0.34372 0
-0.0480926 0.184913 0
-0.117318 0.269148 0
-0.0524453 0.253645 0
-0.128878 0.369003 0
-0.117318 0.269148 0
-0.213206 0.34372 0
-0.128878 0.369003 0
-0.234943 0.470975 0
0 0 0
-0.00883686 0.129117 0
0 0 0
-0.00866601 0.166933 0
-0.00883686 0.129117 0
-0.0524453 0.253645 0
-0.00866601 0.166933 0
-0.0542541 0.327822 0
0 0 0
-0.00866601 0.166933 0
0 0 0
-0.00786025 0.206112 0
-0.00866601 0.166933 0
-0.0542541 0.327822 0
-0.00786025 0.206112 0
-0.0533762 0.404665 0
-0.0524453 0.253645 0
-0.128878 0.369003 0
-0.0542541 0.327822 0
-0.134699 0.476745 0
-0.128878 0.369003 0
-0.234943 0.470975 0
-0.134699 0.476745 0
-0.246616 0.608242 0
-0.0542541 0.327822 0
-0.134699 0.476745 0
-0.0533762 0.404665 0
-0.134449 0.588341 0
-0.134699 0.476745 0
-0.246616 0.608242 0
-0.134449 0.588341 0
-0.247633 0.750394 0
-0.182399 0.231212 0
-0.283586 0.273342 0
-0.213206 0.34372 0
-0.331869 0.405952 0
-0.283586 0.273342 0
-0.400095 0.305825 0
-0.331869 0.405952 0
-0.468552 0.45364 0
-0.213206 0.34372 0
-0.331869 0.405952 0
-0.234943 0.470975 0
-0.366321 0.55587 0
-0.331869 0.405952 0
-0.468552 0.45364 0
-0.366321 0.55587 0
-0.517735 0.620651 0
-0.400095 0.305825 0
-0.527298 0.327562 0
-0.468552 0.45364 0
-0.617816 0.485139 0
-0.527298 0.327562 0
-0.660164 0.337864 0
-0.617816 0.485139 0
-0.773753 0.499418 0
-0.468552 0.45364 0
-0.617816 0.485139 0
-0.517735 0.620651 0
-0.683148 0.663052 0
-0.617816 0.485139 0
-0.773753 0.499418 0
-0.683148 0.663052 0
-0.856 0.681654 0
-0.234943 0.470975 0
-0.366321 0.55587 0
-0.246616 0.608242 0
-0.385425 0.71753 0
-0.366321 0.55587 0
-0.517735 0.620651 0
-0.385425 0.71753 0
-0.545528 0.800673 0
-0.246616 0.608242 0
-0.385425 0.71753 0
-0.247633 0.750394 0
-0.388268 0.884905 0
-0.385425 0.71753 0
-0.545528 0.800673 0
-0.388268 0.884905 0
-0.550653 0.987003 0
-0.517735 0.620651 0
-0.683148 0.663052 0
-0.545528 0.800673 0
-0.720525 0.854729 0
-0.683148 0.663052 0
-0.856 0.681654 0
-0.720525 0.854729 0
-0.903459 0.877863 0
-0.545528 0.800673 0
-0.720525 0.854729 0
-0.550653 0.987003 0
-0.728272 1.05305 0
-0.720525 0.854729 0
-0.903459 0.877863 0
-0.728272 1.05305 0
-0.91404 1.08078 0
0 0 0
0 0 0
-0.183004 0.0309708 0
-0.219917 0.0316834 0
0 0 0
0 0 0
-0.219917 0.0316834 0
-0.255491 0.0315397 0
-0.183004 0.0309708 0
-0.219917 0.0316834 0
-0.35867 0.0993745 0
-0.430998 0.100068 0
-0.219917 0.0316834 0
-0.255491 0.0315397 0
-0.430998 0.100068 0
-0.500706 0.097634 0
0 0 0
0 0 0
-0.255491 0.0315397 0
-0.288332 0.0305732 0
0 0 0
0 0 0
-0.288332 0.0305732 0
-0.317154 0.0288452 0
-0.255491 0.0315397 0
-0.288332 0.0305732 0
-0.500706 0.097634 0
-0.56506 0.0922229 0
-0.288332 0.0305732 0
-0.317154 0.0288452 0
-0.56506 0.0922229 0
-0.621538 0.0840909 0
-0.35867 0.0993745 0
-0.430998 0.100068 0
-0.519899 0.202892 0
-0.624777 0.202864 0
-0.430998 0.100068 0
-0.500706 0.097634 0
-0.624777 0.202864 0
-0.725858 0.19611 0
-0.519899 0.202892 0
-0.624777 0.202864 0
-0.660164 0.337864 0
-0.793455 0.33647 0
-0.624777 0.202864 0
-0.725858 0.19611 0
-0.793455 0.33647 0
-0.921929 0.323557 0
-0.500706 0.097634 0
-0.56506 0.0922229 0
-0.725858 0.19611 0
-0.819177 0.182973 0
-0.56506 0.0922229 0
-0.621538 0.0840909 0
-0.819177 0.182973 0
-0.90108 0.164029 0
-0.725858 0.19611 0
-0.819177 0.182973 0
-0.921929 0.323557 0
-1.04055 0.299731 0
-0.819177 0.182973 0
-0.90108 0.164029 0
-1.04055 0.299731 0
-1.14465 0.266003 0
0 0 0
0 0 0
-0.317154 0.0288452 0
-0.340829 0.0264424 0
0 0 0
0 0 0
-0.340829 0.0264424 0
-0.358433 0.023473 0
-0.317154 0.0288452 0
-0.340829 0.0264424 0
-0.621538 0.0840909 0
-0.667932 0.0735905 0
-0.340829 0.0264424 0
-0.358433 0.023473 0
-0.667932 0.0735905 0
-0.702428 0.0611571 0
0 0 0
0 0 0
-0.358433 0.023473 0
-0.369277 0.0200627 0
0 0 0
0 0 0
-0.369277 0.0200627 0
-0.372938 0.0163497 0
-0.358433 0.023473 0
-0.369277 0.0200627 0
-0.702428 0.0611571 0
-0.723678 0.0472915 0
-0.369277 0.0200627 0
-0.372938 0.0163497 0
-0.723678 0.0472915 0
-0.730853 0.0325406 0
-0.621538 0.0840909 0
-0.667932 0.0735905 0
-0.90108 0.164029 0
-0.968359 0.140066 0
-0.667932 0.0735905 0
-0.702428 0.0611571 0
-0.968359 0.140066 0
-1.01839 0.112053 0
-0.90108 0.164029 0
-0.968359 0.140066 0
-1.14465 0.266003 0
-1.23018 0.223747 0
-0.968359 0.140066 0
-1.01839 0.112053 0
-1.23018 0.223747 0
-1.29377 0.17465 0
-0.702428 0.0611571 0
-0.723678 0.0472915 0
-1.01839 0.112053 0
-1.0492 0.0810998 0
-0.723678 0.0472915 0
-0.730853 0.0325406 0
-1.0492 0.0810998 0
-1.05961 0.0484171 0
-1.01839 0.112053 0
-1.0492 0.0810998 0
-1.29377 0.17465 0
-1.33295 0.120642 0
-1.0492 0.0810998 0
-1.05961 0.0484171 0
-1.33295 0.120642 0
-1.34617 0.0638268 0
-0.660164 0.337864 0
-0.793455 0.33647 0
-0.773753 0.499418 0
-0.93021 0.496094 0
-0.793455 0.33647 0
-0.921929 0.323557 0
-0.93021 0.496094 0
-1.08103 0.475446 0
-0.773753 0.499418 0
-0.93021 0.496094 0
-0.856 0.681654 0
-1.02946 0.675937 0
-0.93021 0.496094 0
-1.08103 0.475446 0
-1.02946 0.675937 0
-1.1967 0.6463 0
-0.921929 0.323557 0
-1.04055 0.299731 0
-1.08103 0.475446 0
-1.22028 0.438403 0
-1.04055 0.299731 0
-1.14465 0.266003 0
-1.22028 0.438403 0
-1.34252 0.386505 0
-1.08103 0.475446 0
-1.22028 0.438403 0
-1.1967 0.6463 0
-1.35113 0.594039 0
-1.22028 0.438403 0
-1.34252 0.386505 0
-1.35113 0.594039 0
-1.48669 0.521301 0
-0.856 0.681654 0
-1.02946 0.675937 0
-0.903459 0.877863 0
-1.08709 0.86941 0
-1.02946 0.675937 0
-1.1967 0.6463 0
-1.08709 0.86941 0
-1.26416 0.829897 0
-0.903459 0.877863 0
-1.08709 0.86941 0
-0.91404 1.08078 0
-1.10058 1.06938 0
-1.08709 0.86941 0
-1.26416 0.829897 0
-1.10058 1.06938 0
-1.28051 1.01951 0
-1.1967 0.6463 0
-1.35113 0.594039 0
-1.26416 0.829897 0
-1.4277 0.761024 0
-1.35113 0.594039 0
-1.48669 0.521301 0
-1.4277 0.761024 0
-1.57127 0.665591 0
-1.26416 0.829897 0
-1.4277 0.761024 0
-1.28051 1.01951 0
-1.44672 0.933281 0
-1.4277 0.761024 0
-1.57127 0.665591 0
-1.44672 0.933281 0
-1.59266 0.814187 0
-1.14465 0.266003 0
-1.23018 0.223747 0
-1.34252 0.386505 0
-1.44293 0.321842 0
-1.23018 0.223747 0
-1.29377 0.17465 0
-1.44293 0.321842 0
-1.5176 0.246977 0
-1.34252 0.386505 0
-1.44293 0.321842 0
-1.48669 0.521301 0
-1.59806 0.430993 0
-1.44293 0.321842 0
-1.5176 0.246977 0
-1.59806 0.430993 0
-1.68088 0.326675 0
-1.29377 0.17465 0
-1.33295 0.120642 0
-1.5176 0.246977 0
-1.5636 0.16484 0
-1.33295 0.120642 0
-1.34617 0.0638268 0
-1.5636 0.16484 0
-1.57913 0.0786213 0
-1.5176 0.246977 0
-1.5636 0.16484 0
-1.68088 0.326675 0
-1.73191 0.21242 0
-1.5636 0.16484 0
-1.57913 0.0786213 0
-1.73191 0.21242 0
-1.74914 0.0926583 0
-1.48669 0.521301 0
-1.59806 0.430993 0
-1.57127 0.665591 0
-1.68923 0.547396 0
-1.59806 0.430993 0
-1.68088 0.326675 0
-1.68923 0.547396 0
-1.77696 0.411082 0
-1.57127 0.665591 0
-1.68923 0.547396 0
-1.59266 0.814187 0
-1.71259 0.666946 0
-1.68923 0.547396 0
-1.77696 0.411082 0
-1.71259 0.666946 0
-1.80179 0.497328 0
-1.68088 0.326675 0
-1.73191 0.21242 0
-1.77696 0.411082 0
-1.83101 0.261959 0
-1.73191 0.21242 0
-1.74914 0.0926583 0
-1.83101 0.261959 0
-1.84926 0.105803 0
-1.77696 0.411082 0
-1.83101 0.261959 0
-1.80179 0.497328 0
-1.85674 0.311931 0
-1.83101 0.261959 0
-1.84926 0.105803 0
-1.85674 0.311931 0
-1.8753 0.117928 0
0 0 0
-0.00786025 0.206112 0
0 0 0
-0.00641662 0.245183 0
-0.00786025 0.206112 0
-0.0533762 0.404665 0
-0.00641662 0.245183 0
-0.0497781 0.481288 0
0 0 0
-0.00641662 0.245183 0
0 0 0
-0.00436001 0.282672 0
-0.00641662 0.245183 0
-0.0497781 0.481288 0
-0.00436001 0.282672 0
-0.0435375 0.554806 0
-0.0533762 0.404665 0
-0.134449 0.588341 0
-0.0497781 0.481288 0
-0.128036 0.699606 0
-0.134449 0.588341 0
-0.247633 0.750394 0
-0.128036 0.699606 0
-0.237823 0.892104 0
-0.0497781 0.481288 0
-0.128036 0.699606 0
-0.0435375 0.554806 0
-0.115618 0.806354 0
-0.128036 0.699606 0
-0.237823 0.892104 0
-0.115618 0.806354 0
-0.217444 1.02805 0
0 0 0
-0.00436001 0.282672 0
0 0 0
-0.00174237 0.317166 0
-0.00436001 0.282672 0
-0.0435375 0.554806 0
-0.00174237 0.317166 0
-0.0348405 0.622448 0
0 0 0
-0.00174237 0.317166 0
0 0 0
0.00135904 0.347363 0
-0.00174237 0.317166 0
-0.0348405 0.622448 0
0.00135904 0.347363 0
-0.0239751 0.681663 0
-0.0435375 0.554806 0
-0.115618 0.806354 0
-0.0348405 0.622448 0
-0.0975921 0.904567 0
-0.115618 0.806354 0
-0.217444 1.02805 0
-0.0975921 0.904567 0
-0.187175 1.15311 0
-0.0348405 0.622448 0
-0.0975921 0.904567 0
-0.0239751 0.681663 0
-0.0745815 0.99054 0
-0.0975921 0.904567 0
-0.187175 1.15311 0
-0.0745815 0.99054 0
-0.148086 1.26258 0
-0.247633 0.750394 0
-0.388268 0.884905 0
-0.237823 0.892104 0
-0.374578 1.05173 0
-0.388268 0.884905 0
-0.550653 0.987003 0
-0.374578 1.05173 0
-0.532721 1.17268 0
-0.237823 0.892104 0
-0.374578 1.05173 0
-0.217444 1.02805 0
-0.344734 1.21175 0
-0.374578 1.05173 0
-0.532721 1.17268 0
-0.344734 1.21175 0
-0.492247 1.35076 0
-0.550653 0.987003 0
-0.728272 1.05305 0
-0.532721 1.17268 0
-0.705871 1.25063 0
-0.728272 1.05305 0
-0.91404 1.08078 0
-0.705871 1.25063 0
-0.887092 1.28287 0
-0.532721 1.17268 0
-0.705871 1.25063 0
-0.492247 1.35076 0
-0.653985 1.44008 0
-0.705871 1.25063 0
-0.887092 1.28287 0
-0.653985 1.44008 0
-0.823429 1.47659 0
-0.217444 1.02805 0
-0.344734 1.21175 0
-0.187175 1.15311 0
-0.299754 1.35894 0
-0.344734 1.21175 0
-0.492247 1.35076 0
-0.299754 1.35894 0
-0.430633 1.51454 0
-0.187175 1.15311 0
-0.299754 1.35894 0
-0.148086 1.26258 0
-0.241254 1.48778 0
-0.299754 1.35894 0
-0.430633 1.51454 0
-0.241254 1.48778 0
-0.350114 1.65789 0
-0.492247 1.35076 0
-0.653985 1.44008 0
-0.430633 1.51454 0
-0.574432 1.6143 0
-0.653985 1.44008 0
-0.823429 1.47659 0
-0.574432 1.6143 0
-0.7253 1.65471 0
-0.430633 1.51454 0
-0.574432 1.6143 0
-0.350114 1.65789 0
-0.470117 1.76676 0
-0.574432 1.6143 0
-0.7253 1.65471 0
-0.470117 1.76676 0
-0.596307 1.81056 0
0 0 0
0.00135904 0.347363 0
0 0 0
0.00484442 0.372124 0
0.00135904 0.347363 0
-0.0239751 0.681663 0
0.00484442 0.372124 0
-0.0113203 0.730215 0
0 0 0
0.00484442 0.372124 0
0 0 0
0.00859503 0.390511 0
0.00484442 0.372124 0
-0.0113203 0.730215 0
0.00859503 0.390511 0
0.00266773 0.76627 0
-0.0239751 0.681663 0
-0.0745815 0.99054 0
-0.0113203 0.730215 0
-0.0474137 1.06103 0
-0.0745815 0.99054 0
-0.148086 1.26258 0
-0.0474137 1.06103 0
-0.101605 1.35234 0
-0.0113203 0.730215 0
-0.0474137 1.06103 0
0.00266773 0.76627 0
-0.0170876 1.11337 0
-0.0474137 1.06103 0
-0.101605 1.35234 0
-0.0170876 1.11337 0
-0.0494593 1.41898 0
0 0 0
0.00859503 0.390511 0
0 0 0
0.0124777 0.401829 0
0.00859503 0.390511 0
0.00266773 0.76627 0
0.0124777 0.401829 0
0.0174734 0.788464 0
0 0 0
0.0124777 0.401829 0
0 0 0
0.0163497 0.405651 0
0.0124777 0.401829 0
0.0174734 0.788464 0
0.0163497 0.405651 0
0.0325406 0.795958 0
0.00266773 0.76627 0
-0.0170876 1.11337 0
0.0174734 0.788464 0
0.015264 1.14559 0
-0.0170876 1.11337 0
-0.0494593 1.41898 0
0.015264 1.14559 0
0.00639164 1.46001 0
0.0174734 0.788464 0
0.015264 1.14559 0
0.0325406 0.795958 0
0.0484171 1.15647 0
0.015264 1.14559 0
0.00639164 1.46001 0
0.0484171 1.15647 0
0.0638268 1.47386 0
-0.148086 1.26258 0
-0.241254 1.48778 0
-0.101605 1.35234 0
-0.171388 1.59341 0
-0.241254 1.48778 0
-0.350114 1.65789 0
-0.171388 1.59341 0
-0.253675 1.7754 0
-0.101605 1.35234 0
-0.171388 1.59341 0
-0.0494593 1.41898 0
-0.0927676 1.67183 0
-0.171388 1.59341 0
-0.253675 1.7754 0
-0.0927676 1.67183 0
-0.144932 1.86265 0
-0.350114 1.65789 0
-0.470117 1.76676 0
-0.253675 1.7754 0
-0.344921 1.89173 0
-0.470117 1.76676 0
-0.596307 1.81056 0
-0.344921 1.89173 0
-0.441264 1.93829 0
-0.253675 1.7754 0
-0.344921 1.89173 0
-0.144932 1.86265 0
-0.203555 1.98451 0
-0.344921 1.89173 0
-0.441264 1.93829 0
-0.203555 1.98451 0
-0.266016 2.03312 0
-0.0494593 1.41898 0
-0.0927676 1.67183 0
0.00639164 1.46001 0
-0.00836066 1.72011 0
-0.0927676 1.67183 0
-0.144932 1.86265 0
-0.00836066 1.72011 0
-0.0280028 1.91635 0
0.00639164 1.46001 0
-0.00836066 1.72011 0
0.0638268 1.47386 0
0.0786213 1.73641 0
-0.00836066 1.72011 0
-0.0280028 1.91635 0
0.0786213 1.73641 0
0.0926583 1.93448 0
-0.144932 1.86265 0
-0.203555 1.98451 0
-0.0280028 1.91635 0
-0.0513793 2.04162 0
-0.203555 1.98451 0
-0.266016 2.03312 0
-0.0513793 2.04162 0
-0.0772169 2.09148 0
-0.0280028 1.91635 0
-0.0513793 2.04162 0
0.0926583 1.93448 0
0.105803 2.0609 0
-0.0513793 2.04162 0
-0.0772169 2.09148 0
0.105803 2.0609 0
0.117928 2.11118 0
-0.91404 1.08078 0
-1.10058 1.06938 0
-0.887092 1.28287 0
-1.06916 1.26844 0
-1.10058 1.06938 0
-1.28051 1.01951 0
-1.06916 1.26844 0
-1.24484 1.20814 0
-0.887092 1.28287 0
-1.06916 1.26844 0
-0.823429 1.47659 0
-0.993785 1.4592 0
-1.06916 1.26844 0
-1.24484 1.20814 0
-0.993785 1.4592 0
-1.15825 1.38882 0
-1.28051 1.01951 0
-1.44672 0.933281 0
-1.24484 1.20814 0
-1.40717 1.10451 0
-1.44672 0.933281 0
-1.59266 0.814187 0
-1.40717 1.10451 0
-1.54974 0.961709 0
-1.24484 1.20814 0
-1.40717 1.10451 0
-1.15825 1.38882 0
-1.31028 1.26841 0
-1.40717 1.10451 0
-1.54974 0.961709 0
-1.31028 1.26841 0
-1.44384 1.10279 0
-0.823429 1.47659 0
-0.993785 1.4592 0
-0.7253 1.65471 0
-0.87714 1.63454 0
-0.993785 1.4592 0
-1.15825 1.38882 0
-0.87714 1.63454 0
-1.02385 1.55485 0
-0.7253 1.65471 0
-0.87714 1.63454 0
-0.596307 1.81056 0
-0.72352 1.78793 0
-0.87714 1.63454 0
-1.02385 1.55485 0
-0.72352 1.78793 0
-0.846582 1.70005 0
-1.15825 1.38882 0
-1.31028 1.26841 0
-1.02385 1.55485 0
-1.15954 1.41895 0
-1.31028 1.26841 0
-1.44384 1.10279 0
-1.15954 1.41895 0
-1.2788 1.23226 0
-1.02385 1.55485 0
-1.15954 1.41895 0
-0.846582 1.70005 0
-0.960512 1.55055 0
-1.15954 1.41895 0
-1.2788 1.23226 0
-0.960512 1.55055 0
-1.06071 1.3454 0
-1.59266 0.814187 0
-1.71259 0.666946 0
-1.54974 0.961709 0
-1.66691 0.785389 0
-1.71259 0.666946 0
-1.80179 0.497328 0
-1.66691 0.785389 0
-1.75406 0.582446 0
-1.54974 0.961709 0
-1.66691 0.785389 0
-1.44384 1.10279 0
-1.55364 0.898483 0
-1.66691 0.785389 0
-1.75406 0.582446 0
-1.55364 0.898483 0
-1.63532 0.66348 0
-1.80179 0.497328 0
-1.85674 0.311931 0
-1.75406 0.582446 0
-1.80777 0.360766 0
-1.85674 0.311931 0
-1.8753 0.117928 0
-1.80777 0.360766 0
-1.8259 0.128918 0
-1.75406 0.582446 0
-1.80777 0.360766 0
-1.63532 0.66348 0
-1.68565 0.406903 0
-1.80777 0.360766 0
-1.8259 0.128918 0
-1.68565 0.406903 0
-1.70265 0.138667 0
-1.44384 1.10279 0
-1.55364 0.898483 0
-1.2788 1.23226 0
-1.37686 1.00215 0
-1.55364 0.898483 0
-1.63532 0.66348 0
-1.37686 1.00215 0
-1.44984 0.737594 0
-1.2788 1.23226 0
-1.37686 1.00215 0
-1.06071 1.3454 0
-1.14315 1.09265 0
-1.37686 1.00215 0
-1.44984 0.737594 0
-1.14315 1.09265 0
-1.20451 0.802181 0
-1.63532 0.66348 0
-1.68565 0.406903 0
-1.44984 0.737594 0
-1.49481 0.448852 0
-1.68565 0.406903 0
-1.70265 0.138667 0
-1.49481 0.448852 0
-1.51 0.14708 0
-1.44984 0.737594 0
-1.49481 0.448852 0
-1.20451 0.802181 0
-1.24234 0.485242 0
-1.49481 0.448852 0
-1.51 0.14708 0
-1.24234 0.485242 0
-1.25512 0.154077 0
-0.596307 1.81056 0
-0.72352 1.78793 0
-0.441264 1.93829 0
-0.538672 1.91364 0
-0.72352 1.78793 0
-0.846582 1.70005 0
-0.538672 1.91364 0
-0.633106 1.81902 0
-0.441264 1.93829 0
-0.538672 1.91364 0
-0.266016 2.03312 0
-0.329576 2.00695 0
-0.538672 1.91364 0
-0.633106 1.81902 0
-0.329576 2.00695 0
-0.391487 1.90732 0
-0.846582 1.70005 0
-0.960512 1.55055 0
-0.633106 1.81902 0
-0.720673 1.65835 0
-0.960512 1.55055 0
-1.06071 1.3454 0
-0.720673 1.65835 0
-0.797779 1.43803 0
-0.633106 1.81902 0
-0.720673 1.65835 0
-0.391487 1.90732 0
-0.449096 1.73834 0
-0.720673 1.65835 0
-0.797779 1.43803 0
-0.449096 1.73834 0
-0.499956 1.50674 0
-0.266016 2.03312 0
-0.329576 2.00695 0
-0.0772169 2.09148 0
-0.104177 2.06437 0
-0.329576 2.00695 0
-0.391487 1.90732 0
-0.104177 2.06437 0
-0.130911 1.96166 0
-0.0772169 2.09148 0
-0.104177 2.06437 0
0.117928 2.11118 0
0.128918 2.08376 0
-0.104177 2.06437 0
-0.130911 1.96166 0
0.128918 2.08376 0
0.138667 1.98 0
-0.391487 1.90732 0
-0.449096 1.73834 0
-0.130911 1.96166 0
-0.156114 1.78756 0
-0.449096 1.73834 0
-0.499956 1.50674 0
-0.156114 1.78756 0
-0.178577 1.54901 0
-0.130911 1.96166 0
-0.156114 1.78756 0
0.138667 1.98 0
0.14708 1.80418 0
-0.156114 1.78756 0
-0.178577 1.54901 0
0.14708 1.80418 0
0.154077 1.56328 0
-1.06071 1.3454 0
-1.14315 1.09265 0
-0.797779 1.43803 0
-0.861274 1.1667 0
-1.14315 1.09265 0
-1.20451 0.802181 0
-0.861274 1.1667 0
-0.908567 0.854959 0
-0.797779 1.43803 0
-0.861274 1.1667 0
-0.499956 1.50674 0
-0.541918 1.22161 0
-0.861274 1.1667 0
-0.908567 0.854959 0
-0.541918 1.22161 0
-0.573214 0.894057 0
-1.20451 0.802181 0
-1.24234 0.485242 0
-0.908567 0.854959 0
-0.937733 0.514878 0
-1.24234 0.485242 0
-1.25512 0.154077 0
-0.937733 0.514878 0
-0.947588 0.15959 0
-0.908567 0.854959 0
-0.937733 0.514878 0
-0.573214 0.894057 0
-0.592532 0.536779 0
-0.937733 0.514878 0
-0.947588 0.15959 0
-0.592532 0.536779 0
-0.599061 0.163566 0
-0.499956 1.50674 0
-0.541918 1.22161 0
-0.178577 1.54901 0
-0.197239 1.25538 0
-0.541918 1.22161 0
-0.573214 0.894057 0
-0.197239 1.25538 0
-0.211224 0.918087 0
-0.178577 1.54901 0
-0.197239 1.25538 0
0.154077 1.56328 0
0.15959 1.26677 0
-0.197239 1.25538 0
-0.211224 0.918087 0
0.15959 1.26677 0
0.163566 0.926195 0
-0.573214 0.894057 0
-0.592532 0.536779 0
-0.211224 0.918087 0
-0.219883 0.550218 0
-0.592532 0.536779 0
-0.599061 0.163566 0
-0.219883 0.550218 0
-0.222814 0.165967 0
-0.211224 0.918087 0
-0.219883 0.550218 0
0.163566 0.926195 0
0.165967 0.554748 0
-0.219883 0.550218 0
-0.222814 0.165967 0
0.165967 0.554748 0
0.16677 0.16677 0
0 0 0
0 0 0
-0.372938 0.0163497 0
-0.369273 0.0124792 0
0 0 0
0 0 0
-0.369273 0.0124792 0
-0.358426 0.00859798 0
-0.372938 0.0163497 0
-0.369273 0.0124792 0
-0.730853 0.0325406 0
-0.723672 0.0174763 0
-0.369273 0.0124792 0
-0.358426 0.00859798 0
-0.723672 0.0174763 0
-0.702416 0.00267353 0
0 0 0
0 0 0
-0.358426 0.00859798 0
-0.340819 0.0048488 0
0 0 0
0 0 0
-0.340819 0.0048488 0
-0.317141 0.00136481 0
-0.358426 0.00859798 0
-0.340819 0.0048488 0
-0.702416 0.00267353 0
-0.667914 -0.0113117 0
-0.340819 0.0048488 0
-0.317141 0.00136481 0
-0.667914 -0.0113117 0
-0.621515 -0.0239637 0
-0.730853 0.0325406 0
-0.723672 0.0174763 0
-1.05961 0.0484171 0
-1.0492 0.0152682 0
-0.723672 0.0174763 0
-0.702416 0.00267353 0
-1.0492 0.0152682 0
-1.01837 -0.0170792 0
-1.05961 0.0484171 0
-1.0492 0.0152682 0
-1.34617 0.0638268 0
-1.33294 0.00639698 0
-1.0492 0.0152682 0
-1.01837 -0.0170792 0
-1.33294 0.00639698 0
-1.29375 -0.0494486 0
-0.702416 0.00267353 0
-0.667914 -0.0113117 0
-1.01837 -0.0170792 0
-0.968337 -0.0474012 0
-0.667914 -0.0113117 0
-0.621515 -0.0239637 0
-0.968337 -0.0474012 0
-0.90105 -0.0745651 0
-1.01837 -0.0170792 0
-0.968337 -0.0474012 0
-1.29375 -0.0494486 0
-1.23015 -0.10159 0
-0.968337 -0.0474012 0
-0.90105 -0.0745651 0
-1.23015 -0.10159 0
-1.14462 -0.148065 0
0 0 0
0 0 0
-0.317141 0.00136481 0
-0.288316 -0.00173529 0
0 0 0
0 0 0
-0.288316 -0.00173529 0
-0.255473 -0.00435171 0
-0.317141 0.00136481 0
-0.288316 -0.00173529 0
-0.621515 -0.0239637 0
-0.565032 -0.0348266 0
-0.288316 -0.00173529 0
-0.255473 -0.00435171 0
-0.565032 -0.0348266 0
-0.500675 -0.0435211 0
0 0 0
0 0 0
-0.255473 -0.00435171 0
-0.219897 -0.00640721 0
0 0 0
0 0 0
-0.219897 -0.00640721 0
-0.182984 -0.00784987 0
-0.255473 -0.00435171 0
-0.219897 -0.00640721 0
-0.500675 -0.0435211 0
-0.430965 -0.0497596 0
-0.219897 -0.00640721 0
-0.182984 -0.00784987 0
-0.430965 -0.0497596 0
-0.358634 -0.0533558 0
-0.621515 -0.0239637 0
-0.565032 -0.0348266 0
-0.90105 -0.0745651 0
-0.819143 -0.0975719 0
-0.565032 -0.0348266 0
-0.500675 -0.0435211 0
-0.819143 -0.0975719 0
-0.725818 -0.115595 0
-0.90105 -0.0745651 0
-0.819143 -0.0975719 0
-1.14462 -0.148065 0
-1.04051 -0.187149 0
-0.819143 -0.0975719 0
-0.725818 -0.115595 0
-1.04051 -0.187149 0
-0.921884 -0.217415 0
-0.500675 -0.0435211 0
-0.430965 -0.0497596 0
-0.725818 -0.115595 0
-0.624734 -0.12801 0
-0.430965 -0.0497596 0
-0.358634 -0.0533558 0
-0.624734 -0.12801 0
-0.519854 -0.134419 0
-0.725818 -0.115595 0
-0.624734 -0.12801 0
-0.921884 -0.217415 0
-0.793406 -0.237789 0
-0.624734 -0.12801 0
-0.519854 -0.134419 0
-0.793406 -0.237789 0
-0.660113 -0.247596 0
-1.34617 0.0638268 0
-1.33294 0.00639698 0
-1.57913 0.0786213 0
-1.56359 -0.00835443 0
-1.33294 0.00639698 0
-1.29375 -0.0494486 0
-1.56359 -0.00835443 0
-1.51758 -0.0927552 0
-1.57913 0.0786213 0
-1.56359 -0.00835443 0
-1.74914 0.0926583 0
-1.7319 -0.027996 0
-1.56359 -0.00835443 0
-1.51758 -0.0927552 0
-1.7319 -0.027996 0
-1.68086 -0.144919 0
-1.29375 -0.0494486 0
-1.23015 -0.10159 0
-1.51758 -0.0927552 0
-1.4429 -0.17137 0
-1.23015 -0.10159 0
-1.14462 -0.148065 0
-1.4429 -0.17137 0
-1.34248 -0.24123 0
-1.51758 -0.0927552 0
-1.4429 -0.17137 0
-1.68086 -0.144919 0
-1.59803 -0.253654 0
-1.4429 -0.17137 0
-1.34248 -0.24123 0
-1.59803 -0.253654 0
-1.48665 -0.350088 0
-1.74914 0.0926583 0
-1.7319 -0.027996 0
-1.84926 0.105803 0
-1.831 -0.0513721 0
-1.7319 -0.027996 0
-1.68086 -0.144919 0
-1.831 -0.0513721 0
-1.77694 -0.203541 0
-1.84926 0.105803 0
-1.831 -0.0513721 0
-1.8753 0.117928 0
-1.85673 -0.0772096 0
-1.831 -0.0513721 0
-1.77694 -0.203541 0
-1.85673 -0.0772096 0
-1.80177 -0.266002 0
-1.68086 -0.144919 0
-1.59803 -0.253654 0
-1.77694 -0.203541 0
-1.68921 -0.3449 0
-1.59803 -0.253654 0
-1.48665 -0.350088 0
-1.68921 -0.3449 0
-1.57123 -0.470089 0
-1.77694 -0.203541 0
-1.68921 -0.3449 0
-1.80177 -0.266002 0
-1.71257 -0.441242 0
-1.68921 -0.3449 0
-1.57123 -0.470089 0
-1.71257 -0.441242 0
-1.59263 -0.596279 0
-1.14462 -0.148065 0
-1.04051 -0.187149 0
-1.34248 -0.24123 0
-1.22024 -0.299724 0
-1.04051 -0.187149 0
-0.921884 -0.217415 0
-1.22024 -0.299724 0
-1.08098 -0.344699 0
-1.34248 -0.24123 0
-1.22024 -0.299724 0
-1.48665 -0.350088 0
-1.35108 -0.4306 0
-1.22024 -0.299724 0
-1.08098 -0.344699 0
-1.35108 -0.4306 0
-1.19665 -0.492208 0
-0.921884 -0.217415 0
-0.793406 -0.237789 0
-1.08098 -0.344699 0
-0.930158 -0.374538 0
-0.793406 -0.237789 0
-0.660113 -0.247596 0
-0.930158 -0.374538 0
-0.773699 -0.388224 0
-1.08098 -0.344699 0
-0.930158 -0.374538 0
-1.19665 -0.492208 0
-1.02941 -0.532677 0
-0.930158 -0.374538 0
-0.773699 -0.388224 0
-1.02941 -0.532677 0
-0.855946 -0.550606 0
-1.48665 -0.350088 0
-1.35108 -0.4306 0
-1.57123 -0.470089 0
-1.42765 -0.574398 0
-1.35108 -0.4306 0
-1.19665 -0.492208 0
-1.42765 -0.574398 0
-1.26411 -0.653945 0
-1.57123 -0.470089 0
-1.42765 -0.574398 0
-1.59263 -0.596279 0
-1.44668 -0.725266 0
-1.42765 -0.574398 0
-1.26411 -0.653945 0
-1.44668 -0.725266 0
-1.28047 -0.823388 0
-1.19665 -0.492208 0
-1.02941 -0.532677 0
-1.26411 -0.653945 0
-1.08704 -0.705826 0
-1.02941 -0.532677 0
-0.855946 -0.550606 0
-1.08704 -0.705826 0
-0.903406 -0.728222 0
-1.26411 -0.653945 0
-1.08704 -0.705826 0
-1.28047 -0.823388 0
-1.10053 -0.887046 0
-1.08704 -0.705826 0
-0.903406 -0.728222 0
-1.10053 -0.887046 0
-0.91399 -0.91399 0
0 0 0
0 0 0
-0.182984 -0.00784987 0
-0.146183 -0.00865483 0
0 0 0
0 0 0
-0.146183 -0.00865483 0
-0.110947 -0.00882509 0
-0.182984 -0.00784987 0
-0.146183 -0.00865483 0
-0.358634 -0.0533558 0
-0.286527 -0.0542321 0
-0.146183 -0.00865483 0
-0.110947 -0.00882509 0
-0.286527 -0.0542321 0
-0.217483 -0.0524222 0
0 0 0
0 0 0
-0.110947 -0.00882509 0
-0.0786674 -0.00839124 0
0 0 0
0 0 0
-0.0786674 -0.00839124 0
-0.0506288 -0.0074103 0
-0.110947 -0.00882509 0
-0.0786674 -0.00839124 0
-0.217483 -0.0524222 0
-0.154232 -0.048069 0
-0.0786674 -0.00839124 0
-0.0506288 -0.0074103 0
-0.154232 -0.048069 0
-0.0992868 -0.0414201 0
-0.358634 -0.0533558 0
-0.286527 -0.0542321 0
-0.519854 -0.134419 0
-0.415302 -0.134668 0
-0.286527 -0.0542321 0
-0.217483 -0.0524222 0
-0.415302 -0.134668 0
-0.315197 -0.128845 0
-0.519854 -0.134419 0
-0.415302 -0.134668 0
-0.660113 -0.247596 0
-0.527246 -0.246576 0
-0.415302 -0.134668 0
-0.315197 -0.128845 0
-0.527246 -0.246576 0
-0.400045 -0.234901 0
-0.217483 -0.0524222 0
-0.154232 -0.048069 0
-0.315197 -0.128845 0
-0.223496 -0.117284 0
-0.154232 -0.048069 0
-0.0992868 -0.0414201 0
-0.223496 -0.117284 0
-0.143841 -0.100549 0
-0.315197 -0.128845 0
-0.223496 -0.117284 0
-0.400045 -0.234901 0
-0.283539 -0.213164 0
-0.223496 -0.117284 0
-0.143841 -0.100549 0
-0.283539 -0.213164 0
-0.182358 -0.182358 0
0 0 0
0 0 0
-0.0506288 -0.0074103 0
-0.027954 -0.00596394 0
0 0 0
0 0 0
-0.027954 -0.00596394 0
-0.0115597 -0.00415674 0
-0.0506288 -0.0074103 0
-0.027954 -0.00596394 0
-0.0992868 -0.0414201 0
-0.0548439 -0.0328191 0
-0.027954 -0.00596394 0
-0.0115597 -0.00415674 0
-0.0548439 -0.0328191 0
-0.0226961 -0.0226961 0
0 0 0
0 0 0
-0.0115597 -0.00415674 0
-0.00211556 -0.00211556 0
0 0 0
0 0 0
-0.00211556 -0.00211556 0
0 0 0
-0.0115597 -0.00415674 0
-0.00211556 -0.00211556 0
-0.0226961 -0.0226961 0
-0.00415674 -0.0115597 0
-0.00211556 -0.00211556 0
0 0 0
-0.00415674 -0.0115597 0
0 0 0
-0.0992868 -0.0414201 0
-0.0548439 -0.0328191 0
-0.143841 -0.100549 0
-0.0794156 -0.0794156 0
-0.0548439 -0.0328191 0
-0.0226961 -0.0226961 0
-0.0794156 -0.0794156 0
-0.0328191 -0.0548439 0
-0.143841 -0.100549 0
-0.0794156 -0.0794156 0
-0.182358 -0.182358 0
-0.100549 -0.143841 0
-0.0794156 -0.0794156 0
-0.0328191 -0.0548439 0
-0.100549 -0.143841 0
-0.0414201 -0.0992868 0
-0.0226961 -0.0226961 0
-0.00415674 -0.0115597 0
-0.0328191 -0.0548439 0
-0.00596394 -0.027954 0
-0.00415674 -0.0115597 0
0 0 0
-0.00596394 -0.027954 0
0 0 0
-0.0328191 -0.0548439 0
-0.00596394 -0.027954 0
-0.0414201 -0.0992868 0
-0.0074103 -0.0506288 0
-0.00596394 -0.027954 0
0 0 0
-0.0074103 -0.0506288 0
0 0 0
-0.660113 -0.247596 0
-0.527246 -0.246576 0
-0.773699 -0.388224 0
-0.617762 -0.385379 0
-0.527246 -0.246576 0
-0.400045 -0.234901 0
-0.617762 -0.385379 0
-0.468499 -0.366273 0
-0.773699 -0.388224 0
-0.617762 -0.385379 0
-0.855946 -0.550606 0
-0.683094 -0.545478 0
-0.617762 -0.385379 0
-0.468499 -0.366273 0
-0.683094 -0.545478 0
-0.517683 -0.517683 0
-0.400045 -0.234901 0
-0.283539 -0.213164 0
-0.468499 -0.366273 0
-0.331821 -0.331821 0
-0.283539 -0.213164 0
-0.182358 -0.182358 0
-0.331821 -0.331821 0
-0.213164 -0.283539 0
-0.468499 -0.366273 0
-0.331821 -0.331821 0
-0.517683 -0.517683 0
-0.366273 -0.468499 0
-0.331821 -0.331821 0
-0.213164 -0.283539 0
-0.366273 -0.468499 0
-0.234901 -0.400045 0
-0.855946 -0.550606 0
-0.683094 -0.545478 0
-0.903406 -0.728222 0
-0.720472 -0.720472 0
-0.683094 -0.545478 0
-0.517683 -0.517683 0
-0.720472 -0.720472 0
-0.545478 -0.683094 0
-0.903406 -0.728222 0
-0.720472 -0.720472 0
-0.91399 -0.91399 0
-0.728222 -0.903406 0
-0.720472 -0.720472 0
-0.545478 -0.683094 0
-0.728222 -0.903406 0
-0.550606 -0.855946 0
-0.517683 -0.517683 0
-0.366273 -0.468499 0
-0.545478 -0.683094 0
-0.385379 -0.617762 0
-0.366273 -0.468499 0
-0.234901 -0.400045 0
-0.385379 -0.617762 0
-0.246576 -0.527246 0
-0.545478 -0.683094 0
-0.385379 -0.617762 0
-0.550606 -0.855946 0
-0.388224 -0.773699 0
-0.385379 -0.617762 0
-0.246576 -0.527246 0
-0.388224 -0.773699 0
-0.247596 -0.660113 0
-0.182358 -0.182358 0
-0.100549 -0.143841 0
-0.213164 -0.283539 0
-0.117284 -0.223496 0
-0.100549 -0.143841 0
-0.0414201 -0.0992868 0
-0.117284 -0.223496 0
-0.048069 -0.154232 0
-0.213164 -0.283539 0
-0.117284 -0.223496 0
-0.234901 -0.400045 0
-0.128845 -0.315197 0
-0.117284 -0.223496 0
-0.048069 -0.154232 0
-0.128845 -0.315197 0
-0.0524222 -0.217483 0
-0.0414201 -0.0992868 0
-0.0074103 -0.0506288 0
-0.048069 -0.154232 0
-0.00839124 -0.0786674 0
-0.0074103 -0.0506288 0
0 0 0
-0.00839124 -0.0786674 0
0 0 0
-0.048069 -0.154232 0
-0.00839124 -0.0786674 0
-0.0524222 -0.217483 0
-0.00882509 -0.110947 0
-0.00839124 -0.0786674 0
0 0 0
-0.00882509 -0.110947 0
0 0 0
-0.234901 -0.400045 0
-0.128845 -0.315197 0
-0.246576 -0.527246 0
-0.134668 -0.415302 0
-0.128845 -0.315197 0
-0.0524222 -0.217483 0
-0.134668 -0.415302 0
-0.0542321 -0.286527 0
-0.246576 -0.527246 0
-0.134668 -0.415302 0
-0.247596 -0.660113 0
-0.134419 -0.519854 0
-0.134668 -0.415302 0
-0.0542321 -0.286527 0
-0.134419 -0.519854 0
-0.0533558 -0.358634 0
-0.0524222 -0.217483 0
-0.00882509 -0.110947 0
-0.0542321 -0.286527 0
-0.00865483 -0.146183 0
-0.00882509 -0.110947 0
0 0 0
-0.00865483 -0.146183 0
0 0 0
-0.0542321 -0.286527 0
-0.00865483 -0.146183 0
-0.0533558 -0.358634 0
-0.00784987 -0.182984 0
-0.00865483 -0.146183 0
0 0 0
-0.00784987 -0.182984 0
0 0 0
-1.8753 0.117928 0
-1.85673 -0.0772096 0
-1.8259 0.128918 0
-1.80776 -0.10417 0
-1.85673 -0.0772096 0
-1.80177 -0.266002 0
-1.80776 -0.10417 0
-1.75405 -0.329562 0
-1.8259 0.128918 0
-1.80776 -0.10417 0
-1.70265 0.138667 0
-1.68564 -0.130905 0
-1.80776 -0.10417 0
-1.75405 -0.329562 0
-1.68564 -0.130905 0
-1.6353 -0.391474 0
-1.80177 -0.266002 0
-1.71257 -0.441242 0
-1.75405 -0.329562 0
-1.66688 -0.538652 0
-1.71257 -0.441242 0
-1.59263 -0.596279 0
-1.66688 -0.538652 0
-1.54971 -0.723493 0
-1.75405 -0.329562 0
-1.66688 -0.538652 0
-1.6353 -0.391474 0
-1.55362 -0.633087 0
-1.66688 -0.538652 0
-1.54971 -0.723493 0
-1.55362 -0.633087 0
-1.44382 -0.846557 0
-1.70265 0.138667 0
-1.68564 -0.130905 0
-1.51 0.14708 0
-1.49481 -0.156108 0
-1.68564 -0.130905 0
-1.6353 -0.391474 0
-1.49481 -0.156108 0
-1.44983 -0.449085 0
-1.51 0.14708 0
-1.49481 -0.156108 0
-1.25512 0.154077 0
-1.24234 -0.178572 0
-1.49481 -0.156108 0
-1.44983 -0.449085 0
-1.24234 -0.178572 0
-1.2045 -0.499947 0
-1.6353 -0.391474 0
-1.55362 -0.633087 0
-1.44983 -0.449085 0
-1.37685 -0.720656 0
-1.55362 -0.633087 0
-1.44382 -0.846557 0
-1.37685 -0.720656 0
-1.27877 -0.960489 0
-1.44983 -0.449085 0
-1.37685 -0.720656 0
-1.2045 -0.499947 0
-1.14313 -0.797765 0
-1.37685 -0.720656 0
-1.27877 -0.960489 0
-1.14313 -0.797765 0
-1.06069 -1.06069 0
-1.59263 -0.596279 0
-1.44668 -0.725266 0
-1.54971 -0.723493 0
-1.40713 -0.877107 0
-1.44668 -0.725266 0
-1.28047 -0.823388 0
-1.40713 -0.877107 0
-1.2448 -0.993746 0
-1.54971 -0.723493 0
-1.40713 -0.877107 0
-1.44382 -0.846557 0
-1.31025 -1.02381 0
-1.40713 -0.877107 0
-1.2448 -0.993746 0
-1.31025 -1.02381 0
-1.15822 -1.15822 0
-1.28047 -0.823388 0
-1.10053 -0.887046 0
-1.2448 -0.993746 0
-1.06911 -1.06911 0
-1.10053 -0.887046 0
-0.91399 -0.91399 0
-1.06911 -1.06911 0
-0.887046 -1.10053 0
-1.2448 -0.993746 0
-1.06911 -1.06911 0
-1.15822 -1.15822 0
-0.993746 -1.2448 0
-1.06911 -1.06911 0
-0.887046 -1.10053 0
-0.993746 -1.2448 0
-0.823388 -1.28047 0
-1.44382 -0.846557 0
-1.31025 -1.02381 0
-1.27877 -0.960489 0
-1.15951 -1.15951 0
-1.31025 -1.02381 0
-1.15822 -1.15822 0
-1.15951 -1.15951 0
-1.02381 -1.31025 0
-1.27877 -0.960489 0
-1.15951 -1.15951 0
-1.06069 -1.06069 0
-0.960489 -1.27877 0
-1.15951 -1.15951 0
-1.02381 -1.31025 0
-0.960489 -1.27877 0
-0.846557 -1.44382 0
-1.15822 -1.15822 0
-0.993746 -1.2448 0
-1.02381 -1.31025 0
-0.877107 -1.40713 0
-0.993746 -1.2448 0
-0.823388 -1.28047 0
-0.877107 -1.40713 0
-0.725266 -1.44668 0
-1.02381 -1.31025 0
-0.877107 -1.40713 0
-0.846557 -1.44382 0
-0.723493 -1.54971 0
-0.877107 -1.40713 0
-0.725266 -1.44668 0
-0.723493 -1.54971 0
-0.596279 -1.59263 0
-1.25512 0.154077 0
-1.24234 -0.178572 0
-0.947588 0.15959 0
-0.937729 -0.197235 0
-1.24234 -0.178572 0
-1.2045 -0.499947 0
-0.937729 -0.197235 0
-0.908559 -0.54191 0
-0.947588 0.15959 0
-0.937729 -0.197235 0
-0.599061 0.163566 0
-0.592529 -0.211221 0
-0.937729 -0.197235 0
-0.908559 -0.54191 0
-0.592529 -0.211221 0
-0.573209 -0.573209 0
-1.2045 -0.499947 0
-1.14313 -0.797765 0
-0.908559 -0.54191 0
-0.861262 -0.861262 0
-1.14313 -0.797765 0
-1.06069 -1.06069 0
-0.861262 -0.861262 0
-0.797765 -1.14313 0
-0.908559 -0.54191 0
-0.861262 -0.861262 0
-0.573209 -0.573209 0
-0.54191 -0.908559 0
-0.861262 -0.861262 0
-0.797765 -1.14313 0
-0.54191 -0.908559 0
-0.499947 -1.2045 0
-0.599061 0.163566 0
-0.592529 -0.211221 0
-0.222814 0.165967 0
-0.219881 -0.219881 0
-0.592529 -0.211221 0
-0.573209 -0.573209 0
-0.219881 -0.219881 0
-0.211221 -0.592529 0
-0.222814 0.165967 0
-0.219881 -0.219881 0
0.16677 0.16677 0
0.165967 -0.222814 0
-0.219881 -0.219881 0
-0.211221 -0.592529 0
0.165967 -0.222814 0
0.163566 -0.599061 0
-0.573209 -0.573209 0
-0.54191 -0.908559 0
-0.211221 -0.592529 0
-0.197235 -0.937729 0
-0.54191 -0.908559 0
-0.499947 -1.2045 0
-0.197235 -0.937729 0
-0.178572 -1.24234 0
-0.211221 -0.592529 0
-0.197235 -0.937729 0
0.163566 -0.599061 0
0.15959 -0.947588 0
-0.197235 -0.937729 0
-0.178572 -1.24234 0
0.15959 -0.947588 0
0.154077 -1.25512 0
-1.06069 -1.06069 0
-0.960489 -1.27877 0
-0.797765 -1.14313 0
-0.720656 -1.37685 0
-0.960489 -1.27877 0
-0.846557 -1.44382 0
-0.720656 -1.37685 0
-0.633087 -1.55362 0
-0.797765 -1.14313 0
-0.720656 -1.37685 0
-0.499947 -1.2045 0
-0.449085 -1.44983 0
-0.720656 -1.37685 0
-0.633087 -1.55362 0
-0.449085 -1.44983 0
-0.391474 -1.6353 0
-0.846557 -1.44382 0
-0.723493 -1.54971 0
-0.633087 -1.55362 0
-0.538652 -1.66688 0
-0.723493 -1.54971 0
-0.596279 -1.59263 0
-0.538652 -1.66688 0
-0.441242 -1.71257 0
-0.633087 -1.55362 0
-0.538652 -1.66688 0
-0.391474 -1.6353 0
-0.329562 -1.75405 0
-0.538652 -1.66688 0
-0.441242 -1.71257 0
-0.329562 -1.75405 0
-0.266002 -1.80177 0
-0.499947 -1.2045 0
-0.449085 -1.44983 0
-0.178572 -1.24234 0
-0.156108 -1.49481 0
-0.449085 -1.44983 0
-0.391474 -1.6353 0
-0.156108 -1.49481 0
-0.130905 -1.68564 0
-0.178572 -1.24234 0
-0.156108 -1.49481 0
0.154077 -1.25512 0
0.14708 -1.51 0
-0.156108 -1.49481 0
-0.130905 -1.68564 0
0.14708 -1.51 0
0.138667 -1.70265 0
-0.391474 -1.6353 0
-0.329562 -1.75405 0
-0.130905 -1.68564 0
-0.10417 -1.80776 0
-0.329562 -1.75405 0
-0.266002 -1.80177 0
-0.10417 -1.80776 0
-0.0772096 -1.85673 0
-0.130905 -1.68564 0
-0.10417 -1.80776 0
0.138667 -1.70265 0
0.128918 -1.8259 0
-0.10417 -1.80776 0
-0.0772096 -1.85673 0
0.128918 -1.8259 0
0.117928 -1.8753 0
-0.91399 -0.91399 0
-0.728222 -0.903406 0
-0.887046 -1.10053 0
-0.705826 -1.08704 0
-0.728222 -0.903406 0
-0.550606 -0.855946 0
-0.705826 -1.08704 0
-0.532677 -1.02941 0
-0.887046 -1.10053 0
-0.705826 -1.08704 0
-0.823388 -1.28047 0
-0.653945 -1.26411 0
-0.705826 -1.08704 0
-0.532677 -1.02941 0
-0.653945 -1.26411 0
-0.492208 -1.19665 0
-0.550606 -0.855946 0
-0.388224 -0.773699 0
-0.532677 -1.02941 0
-0.374538 -0.930158 0
-0.388224 -0.773699 0
-0.247596 -0.660113 0
-0.374538 -0.930158 0
-0.237789 -0.793406 0
-0.532677 -1.02941 0
-0.374538 -0.930158 0
-0.492208 -1.19665 0
-0.344699 -1.08098 0
-0.374538 -0.930158 0
-0.237789 -0.793406 0
-0.344699 -1.08098 0
-0.217415 -0.921884 0
-0.823388 -1.28047 0
-0.653945 -1.26411 0
-0.725266 -1.44668 0
-0.574398 -1.42765 0
-0.653945 -1.26411 0
-0.492208 -1.19665 0
-0.574398 -1.42765 0
-0.4306 -1.35108 0
-0.725266 -1.44668 0
-0.574398 -1.42765 0
-0.596279 -1.59263 0
-0.470089 -1.57123 0
-0.574398 -1.42765 0
-0.4306 -1.35108 0
-0.470089 -1.57123 0
-0.350088 -1.48665 0
-0.492208 -1.19665 0
-0.344699 -1.08098 0
-0.4306 -1.35108 0
-0.299724 -1.22024 0
-0.344699 -1.08098 0
-0.217415 -0.921884 0
-0.299724 -1.22024 0
-0.187149 -1.04051 0
-0.4306 -1.35108 0
-0.299724 -1.22024 0
-0.350088 -1.48665 0
-0.24123 -1.34248 0
-0.299724 -1.22024 0
-0.187149 -1.04051 0
-0.24123 -1.34248 0
-0.148065 -1.14462 0
-0.247596 -0.660113 0
-0.134419 -0.519854 0
-0.237789 -0.793406 0
-0.12801 -0.624734 0
-0.134419 -0.519854 0
-0.0533558 -0.358634 0
-0.12801 -0.624734 0
-0.0497596 -0.430965 0
-0.237789 -0.793406 0
-0.12801 -0.624734 0
-0.217415 -0.921884 0
-0.115595 -0.725818 0
-0.12801 -0.624734 0
-0.0497596 -0.430965 0
-0.115595 -0.725818 0
-0.0435211 -0.500675 0
-0.0533558 -0.358634 0
-0.00784987 -0.182984 0
-0.0497596 -0.430965 0
-0.00640721 -0.219897 0
-0.00784987 -0.182984 0
0 0 0
-0.00640721 -0.219897 0
0 0 0
-0.0497596 -0.430965 0
-0.00640721 -0.219897 0
-0.0435211 -0.500675 0
-0.00435171 -0.255473 0
-0.00640721 -0.219897 0
0 0 0
-0.00435171 -0.255473 0
0 0 0
-0.217415 -0.921884 0
-0.115595 -0.725818 0
-0.187149 -1.04051 0
-0.0975719 -0.819143 0
-0.115595 -0.725818 0
-0.0435211 -0.500675 0
-0.0975719 -0.819143 0
-0.0348266 -0.565032 0
-0.187149 -1.04051 0
-0.0975719 -0.819143 0
-0.148065 -1.14462 0
-0.0745651 -0.90105 0
-0.0975719 -0.819143 0
-0.0348266 -0.565032 0
-0.0745651 -0.90105 0
-0.0239637 -0.621515 0
-0.0435211 -0.500675 0
-0.00435171 -0.255473 0
-0.0348266 -0.565032 0
-0.00173529 -0.288316 0
-0.00435171 -0.255473 0
0 0 0
-0.00173529 -0.288316 0
0 0 0
-0.0348266 -0.565032 0
-0.00173529 -0.288316 0
-0.0239637 -0.621515 0
0.00136481 -0.317141 0
-0.00173529 -0.288316 0
0 0 0
0.00136481 -0.317141 0
0 0 0
-0.596279 -1.59263 0
-0.470089 -1.57123 0
-0.441242 -1.71257 0
-0.3449 -1.68921 0
-0.470089 -1.57123 0
-0.350088 -1.48665 0
-0.3449 -1.68921 0
-0.253654 -1.59803 0
-0.441242 -1.71257 0
-0.3449 -1.68921 0
-0.266002 -1.80177 0
-0.203541 -1.77694 0
-0.3449 -1.68921 0
-0.253654 -1.59803 0
-0.203541 -1.77694 0
-0.144919 -1.68086 0
-0.350088 -1.48665 0
-0.24123 -1.34248 0
-0.253654 -1.59803 0
-0.17137 -1.4429 0
-0.24123 -1.34248 0
-0.148065 -1.14462 0
-0.17137 -1.4429 0
-0.10159 -1.23015 0
-0.253654 -1.59803 0
-0.17137 -1.4429 0
-0.144919 -1.68086 0
-0.0927552 -1.51758 0
-0.17137 -1.4429 0
-0.10159 -1.23015 0
-0.0927552 -1.51758 0
-0.0494486 -1.29375 0
-0.266002 -1.80177 0
-0.203541 -1.77694 0
-0.0772096 -1.85673 0
-0.0513721 -1.831 0
-0.203541 -1.77694 0
-0.144919 -1.68086 0
-0.0513721 -1.831 0
-0.027996 -1.7319 0
-0.0772096 -1.85673 0
-0.0513721 -1.831 0
0.117928 -1.8753 0
0.105803 -1.84926 0
-0.0513721 -1.831 0
-0.027996 -1.7319 0
0.105803 -1.84926 0
0.0926583 -1.74914 0
-0.144919 -1.68086 0
-0.0927552 -1.51758 0
-0.027996 -1.7319 0
-0.00835443 -1.56359 0
-0.0927552 -1.51758 0
-0.0494486 -1.29375 0
-0.00835443 -1.56359 0
0.00639698 -1.33294 0
-0.027996 -1.7319 0
-0.00835443 -1.56359 0
0.0926583 -1.74914 0
0.0786213 -1.57913 0
-0.00835443 -1.56359 0
0.00639698 -1.33294 0
0.0786213 -1.57913 0
0.0638268 -1.34617 0
-0.148065 -1.14462 0
-0.0745651 -0.90105 0
-0.10159 -1.23015 0
-0.0474012 -0.968337 0
-0.0745651 -0.90105 0
-0.0239637 -0.621515 0
-0.0474012 -0.968337 0
-0.0113117 -0.667914 0
-0.10159 -1.23015 0
-0.0474012 -0.968337 0
-0.0494486 -1.29375 0
-0.0170792 -1.01837 0
-0.0474012 -0.968337 0
-0.0113117 -0.667914 0
-0.0170792 -1.01837 0
0.00267353 -0.702416 0
-0.0239637 -0.621515 0
0.00136481 -0.317141 0
-0.0113117 -0.667914 0
0.0048488 -0.340819 0
0.00136481 -0.317141 0
0 0 0
0.0048488 -0.340819 0
0 0 0
-0.0113117 -0.667914 0
0.0048488 -0.340819 0
0.00267353 -0.702416 0
0.00859798 -0.358426 0
0.0048488 -0.340819 0
0 0 0
0.00859798 -0.358426 0
0 0 0
-0.0494486 -1.29375 0
-0.0170792 -1.01837 0
0.00639698 -1.33294 0
0.0152682 -1.0492 0
-0.0170792 -1.01837 0
0.00267353 -0.702416 0
0.0152682 -1.0492 0
0.0174763 -0.723672 0
0.00639698 -1.33294 0
0.0152682 -1.0492 0
0.0638268 -1.34617 0
0.0484171 -1.05961 0
0.0152682 -1.0492 0
0.0174763 -0.723672 0
0.0484171 -1.05961 0
0.0325406 -0.730853 0
0.00267353 -0.702416 0
0.00859798 -0.358426 0
0.0174763 -0.723672 0
0.0124792 -0.369273 0
0.00859798 -0.358426 0
0 0 0
0.0124792 -0.369273 0
0 0 0
0.0174763 -0.723672 0
0.0124792 -0.369273 0
0.0325406 -0.730853 0
0.0163497 -0.372938 0
0.0124792 -0.369273 0
0 0 0
0.0163497 -0.372938 0
0 0 0
0 0 0
0.0163497 0.405651 0
0 0 0
0.0200642 0.401833 0
0.0163497 0.405651 0
0.0325406 0.795958 0
0.0200642 0.401833 0
0.0472944 0.78847 0
0 0 0
0.0200642 0.401833 0
0 0 0
0.0234759 0.390517 0
0.0200642 0.401833 0
0.0472944 0.78847 0
0.0234759 0.390517 0
0.0611629 0.766282 0
0.0325406 0.795958 0
0.0484171 1.15647 0
0.0472944 0.78847 0
0.0811041 1.1456 0
0.0484171 1.15647 0
0.0638268 1.47386 0
0.0811041 1.1456 0
0.120647 1.46002 0
0.0472944 0.78847 0
0.0811041 1.1456 0
0.0611629 0.766282 0
0.112061 1.11339 0
0.0811041 1.1456 0
0.120647 1.46002 0
0.112061 1.11339 0
0.17466 1.419 0
0 0 0
0.0234759 0.390517 0
0 0 0
0.0264468 0.372134 0
0.0234759 0.390517 0
0.0611629 0.766282 0
0.0264468 0.372134 0
0.0735991 0.730233 0
0 0 0
0.0264468 0.372134 0
0 0 0
0.028851 0.347376 0
0.0264468 0.372134 0
0.0735991 0.730233 0
0.028851 0.347376 0
0.0841022 0.681686 0
0.0611629 0.766282 0
0.112061 1.11339 0
0.0735991 0.730233 0
0.140079 1.06105 0
0.112061 1.11339 0
0.17466 1.419 0
0.140079 1.06105 0
0.223763 1.35236 0
0.0735991 0.730233 0
0.140079 1.06105 0
0.0841022 0.681686 0
0.164045 0.990569 0
0.140079 1.06105 0
0.223763 1.35236 0
0.164045 0.990569 0
0.266024 1.26262 0
0.0638268 1.47386 0
0.0786213 1.73641 0
0.120647 1.46002 0
0.164846 1.72012 0
0.0786213 1.73641 0
0.0926583 1.93448 0
0.164846 1.72012 0
0.212427 1.91636 0
0.120647 1.46002 0
0.164846 1.72012 0
0.17466 1.419 0
0.246989 1.67185 0
0.164846 1.72012 0
0.212427 1.91636 0
0.246989 1.67185 0
0.326689 1.86267 0
0.0926583 1.93448 0
0.105803 2.0609 0
0.212427 1.91636 0
0.261966 2.04163 0
0.105803 2.0609 0
0.117928 2.11118 0
0.261966 2.04163 0
0.311939 2.09149 0
0.212427 1.91636 0
0.261966 2.04163 0
0.326689 1.86267 0
0.411096 1.98453 0
0.261966 2.04163 0
0.311939 2.09149 0
0.411096 1.98453 0
0.497342 2.03313 0
0.17466 1.419 0
0.246989 1.67185 0
0.223763 1.35236 0
0.321861 1.59343 0
0.246989 1.67185 0
0.326689 1.86267 0
0.321861 1.59343 0
0.431013 1.77543 0
0.223763 1.35236 0
0.321861 1.59343 0
0.266024 1.26262 0
0.386529 1.48782 0
0.321861 1.59343 0
0.431013 1.77543 0
0.386529 1.48782 0
0.521328 1.65792 0
0.326689 1.86267 0
0.411096 1.98453 0
0.431013 1.77543 0
0.547417 1.89175 0
0.411096 1.98453 0
0.497342 2.03313 0
0.547417 1.89175 0
0.666968 1.93832 0
0.431013 1.77543 0
0.547417 1.89175 0
0.521328 1.65792 0
0.665619 1.76679 0
0.547417 1.89175 0
0.666968 1.93832 0
0.665619 1.76679 0
0.814215 1.81059 0
0 0 0
0.028851 0.347376 0
0 0 0
0.0305803 0.317182 0
0.028851 0.347376 0
0.0841022 0.681686 0
0.0305803 0.317182 0
0.0922369 0.622475 0
0 0 0
0.0305803 0.317182 0
0 0 0
0.031548 0.282689 0
0.0305803 0.317182 0
0.0922369 0.622475 0
0.031548 0.282689 0
0.0976503 0.554836 0
0.0841022 0.681686 0
0.164045 0.990569 0
0.0922369 0.622475 0
0.182993 0.904602 0
0.164045 0.990569 0
0.266024 1.26262 0
0.182993 0.904602 0
0.299757 1.15315 0
0.0922369 0.622475 0
0.182993 0.904602 0
0.0976503 0.554836 0
0.196134 0.806394 0
0.182993 0.904602 0
0.299757 1.15315 0
0.196134 0.806394 0
0.323587 1.02809 0
0 0 0
0.031548 0.282689 0
0 0 0
0.0316929 0.245202 0
0.031548 0.282689 0
0.0976503 0.554836 0
0.0316929 0.245202 0
0.100086 0.481321 0
0 0 0
0.0316929 0.245202 0
0 0 0
0.0309812 0.206133 0
0.0316929 0.245202 0
0.100086 0.481321 0
0.0309812 0.206133 0
0.0993949 0.404701 0
0.0976503 0.554836 0
0.196134 0.806394 0
0.100086 0.481321 0
0.202891 0.699649 0
0.196134 0.806394 0
0.323587 1.02809 0
0.202891 0.699649 0
0.336504 0.892153 0
0.100086 0.481321 0
0.202891 0.699649 0
0.0993949 0.404701 0
0.202922 0.588387 0
0.202891 0.699649 0
0.336504 0.892153 0
0.202922 0.588387 0
0.337901 0.750445 0
0.266024 1.26262 0
0.386529 1.48782 0
0.299757 1.15315 0
0.438433 1.35899 0
0.386529 1.48782 0
0.521328 1.65792 0
0.438433 1.35899 0
0.594072 1.51459 0
0.299757 1.15315 0
0.438433 1.35899 0
0.323587 1.02809 0
0.475481 1.2118 0
0.438433 1.35899 0
0.594072 1.51459 0
0.475481 1.2118 0
0.646338 1.3508 0
0.521328 1.65792 0
0.665619 1.76679 0
0.594072 1.51459 0
0.761058 1.61434 0
0.665619 1.76679 0
0.814215 1.81059 0
0.761058 1.61434 0
0.933315 1.65475 0
0.594072 1.51459 0
0.761058 1.61434 0
0.646338 1.3508 0
0.829937 1.44012 0
0.761058 1.61434 0
0.933315 1.65475 0
0.829937 1.44012 0
1.01955 1.47664 0
0.323587 1.02809 0
0.475481 1.2118 0
0.336504 0.892153 0
0.496133 1.05178 0
0.475481 1.2118 0
0.646338 1.3508 0
0.496133 1.05178 0
0.67598 1.17273 0
0.336504 0.892153 0
0.496133 1.05178 0
0.337901 0.750445 0
0.499461 0.884959 0
0.496133 1.05178 0
0.67598 1.17273 0
0.499461 0.884959 0
0.681701 0.987057 0
0.646338 1.3508 0
0.829937 1.44012 0
0.67598 1.17273 0
0.869455 1.25068 0
0.829937 1.44012 0
1.01955 1.47664 0
0.869455 1.25068 0
1.06943 1.28292 0
0.67598 1.17273 0
0.869455 1.25068 0
0.681701 0.987057 0
0.877913 1.0531 0
0.869455 1.25068 0
1.06943 1.28292 0
0.877913 1.0531 0
1.08083 1.08083 0
0.117928 2.11118 0
0.128918 2.08376 0
0.311939 2.09149 0
0.360773 2.06438 0
0.128918 2.08376 0
0.138667 1.98 0
0.360773 2.06438 0
0.40691 1.96167 0
0.311939 2.09149 0
0.360773 2.06438 0
0.497342 2.03313 0
0.58246 2.00696 0
0.360773 2.06438 0
0.40691 1.96167 0
0.58246 2.00696 0
0.663493 1.90734 0
0.138667 1.98 0
0.14708 1.80418 0
0.40691 1.96167 0
0.448858 1.78757 0
0.14708 1.80418 0
0.154077 1.56328 0
0.448858 1.78757 0
0.485247 1.54902 0
0.40691 1.96167 0
0.448858 1.78757 0
0.663493 1.90734 0
0.737606 1.73836 0
0.448858 1.78757 0
0.485247 1.54902 0
0.737606 1.73836 0
0.802191 1.50675 0
0.497342 2.03313 0
0.58246 2.00696 0
0.666968 1.93832 0
0.78541 1.91366 0
0.58246 2.00696 0
0.663493 1.90734 0
0.78541 1.91366 0
0.898502 1.81904 0
0.666968 1.93832 0
0.78541 1.91366 0
0.814215 1.81059 0
0.961736 1.78797 0
0.78541 1.91366 0
0.898502 1.81904 0
0.961736 1.78797 0
1.10281 1.70008 0
0.663493 1.90734 0
0.737606 1.73836 0
0.898502 1.81904 0
1.00217 1.65837 0
0.737606 1.73836 0
0.802191 1.50675 0
1.00217 1.65837 0
1.09267 1.43804 0
0.898502 1.81904 0
1.00217 1.65837 0
1.10281 1.70008 0
1.23229 1.55058 0
1.00217 1.65837 0
1.09267 1.43804 0
1.23229 1.55058 0
1.34542 1.34542 0
0.154077 1.56328 0
0.15959 1.26677 0
0.485247 1.54902 0
0.514881 1.25538 0
0.15959 1.26677 0
0.163566 0.926195 0
0.514881 1.25538 0
0.536781 0.91809 0
0.485247 1.54902 0
0.514881 1.25538 0
0.802191 1.50675 0
0.854967 1.22162 0
0.514881 1.25538 0
0.536781 0.91809 0
0.854967 1.22162 0
0.894063 0.894063 0
0.163566 0.926195 0
0.165967 0.554748 0
0.536781 0.91809 0
0.550219 0.550219 0
0.165967 0.554748 0
0.16677 0.16677 0
0.550219 0.550219 0
0.554748 0.165967 0
0.536781 0.91809 0
0.550219 0.550219 0
0.894063 0.894063 0
0.91809 0.536781 0
0.550219 0.550219 0
0.554748 0.165967 0
0.91809 0.536781 0
0.926195 0.163566 0
0.802191 1.50675 0
0.854967 1.22162 0
1.09267 1.43804 0
1.16671 1.16671 0
0.854967 1.22162 0
0.894063 0.894063 0
1.16671 1.16671 0
1.22162 0.854967 0
1.09267 1.43804 0
1.16671 1.16671 0
1.34542 1.34542 0
1.43804 1.09267 0
1.16671 1.16671 0
1.22162 0.854967 0
1.43804 1.09267 0
1.50675 0.802191 0
0.894063 0.894063 0
0.91809 0.536781 0
1.22162 0.854967 0
1.25538 0.514881 0
0.91809 0.536781 0
0.926195 0.163566 0
1.25538 0.514881 0
1.26677 0.15959 0
1.22162 0.854967 0
1.25538 0.514881 0
1.50675 0.802191 0
1.54902 0.485247 0
1.25538 0.514881 0
1.26677 0.15959 0
1.54902 0.485247 0
1.56328 0.154077 0
0.814215 1.81059 0
0.961736 1.78797 0
0.933315 1.65475 0
1.10454 1.63458 0
0.961736 1.78797 0
1.10281 1.70008 0
1.10454 1.63458 0
1.26844 1.55489 0
0.933315 1.65475 0
1.10454 1.63458 0
1.01955 1.47664 0
1.20818 1.45924 0
1.10454 1.63458 0
1.26844 1.55489 0
1.20818 1.45924 0
1.38886 1.38886 0
1.10281 1.70008 0
1.23229 1.55058 0
1.26844 1.55489 0
1.41898 1.41898 0
1.23229 1.55058 0
1.34542 1.34542 0
1.41898 1.41898 0
1.55058 1.23229 0
1.26844 1.55489 0
1.41898 1.41898 0
1.38886 1.38886 0
1.55489 1.26844 0
1.41898 1.41898 0
1.55058 1.23229 0
1.55489 1.26844 0
1.70008 1.10281 0
1.01955 1.47664 0
1.20818 1.45924 0
1.06943 1.28292 0
1.26849 1.26849 0
1.20818 1.45924 0
1.38886 1.38886 0
1.26849 1.26849 0
1.45924 1.20818 0
1.06943 1.28292 0
1.26849 1.26849 0
1.08083 1.08083 0
1.28292 1.06943 0
1.26849 1.26849 0
1.45924 1.20818 0
1.28292 1.06943 0
1.47664 1.01955 0
1.38886 1.38886 0
1.55489 1.26844 0
1.45924 1.20818 0
1.63458 1.10454 0
1.55489 1.26844 0
1.70008 1.10281 0
1.63458 1.10454 0
1.78797 0.961736 0
1.45924 1.20818 0
1.63458 1.10454 0
1.47664 1.01955 0
1.65475 0.933315 0
1.63458 1.10454 0
1.78797 0.961736 0
1.65475 0.933315 0
1.81059 0.814215 0
1.34542 1.34542 0
1.43804 1.09267 0
1.55058 1.23229 0
1.65837 1.00217 0
1.43804 1.09267 0
1.50675 0.802191 0
1.65837 1.00217 0
1.73836 0.737606 0
1.55058 1.23229 0
1.65837 1.00217 0
1.70008 1.10281 0
1.81904 0.898502 0
1.65837 1.00217 0
1.73836 0.737606 0
1.81904 0.898502 0
1.90734 0.663493 0
1.50675 0.802191 0
1.54902 0.485247 0
1.73836 0.737606 0
1.78757 0.448858 0
1.54902 0.485247 0
1.56328 0.154077 0
1.78757 0.448858 0
1.80418 0.14708 0
1.73836 0.737606 0
1.78757 0.448858 0
1.90734 0.663493 0
1.96167 0.40691 0
1.78757 0.448858 0
1.80418 0.14708 0
1.96167 0.40691 0
1.98 0.138667 0
1.70008 1.10281 0
1.81904 0.898502 0
1.78797 0.961736 0
1.91366 0.78541 0
1.81904 0.898502 0
1.90734 0.663493 0
1.91366 0.78541 0
2.00696 0.58246 0
1.78797 0.961736 0
1.91366 0.78541 0
1.81059 0.814215 0
1.93832 0.666968 0
1.91366 0.78541 0
2.00696 0.58246 0
1.93832 0.666968 0
2.03313 0.497342 0
1.90734 0.663493 0
1.96167 0.40691 0
2.00696 0.58246 0
2.06438 0.360773 0
1.96167 0.40691 0
1.98 0.138667 0
2.06438 0.360773 0
2.08376 0.128918 0
2.00696 0.58246 0
2.06438 0.360773 0
2.03313 0.497342 0
2.09149 0.311939 0
2.06438 0.360773 0
2.08376 0.128918 0
2.09149 0.311939 0
2.11118 0.117928 0
0 0 0
0.0309812 0.206133 0
0 0 0
0.0294089 0.166954 0
0.0309812 0.206133 0
0.0993949 0.404701 0
0.0294089 0.166954 0
0.0955402 0.327858 0
0 0 0
0.0294089 0.166954 0
0 0 0
0.0270019 0.129137 0
0.0294089 0.166954 0
0.0955402 0.327858 0
0.0270019 0.129137 0
0.0886009 0.253681 0
0.0993949 0.404701 0
0.202922 0.588387 0
0.0955402 0.327858 0
0.196131 0.47679 0
0.202922 0.588387 0
0.337901 0.750445 0
0.196131 0.47679 0
0.327602 0.608294 0
0.0955402 0.327858 0
0.196131 0.47679 0
0.0886009 0.253681 0
0.182677 0.369048 0
0.196131 0.47679 0
0.327602 0.608294 0
0.182677 0.369048 0
0.305867 0.471025 0
0 0 0
0.0270019 0.129137 0
0 0 0
0.0238154 0.0941024 0
0.0270019 0.129137 0
0.0886009 0.253681 0
0.0238154 0.0941024 0
0.0787694 0.184946 0
0 0 0
0.0238154 0.0941024 0
0 0 0
0.0199329 0.0631591 0
0.0238154 0.0941024 0
0.0787694 0.184946 0
0.0199329 0.0631591 0
0.0663457 0.124221 0
0.0886009 0.253681 0
0.182677 0.369048 0
0.0787694 0.184946 0
0.162965 0.269189 0
0.182677 0.369048 0
0.305867 0.471025 0
0.162965 0.269189 0
0.273385 0.343767 0
0.0787694 0.184946 0
0.162965 0.269189 0
0.0663457 0.124221 0
0.137638 0.180936 0
0.162965 0.269189 0
0.273385 0.343767 0
0.137638 0.180936 0
0.231252 0.231252 0
0.337901 0.750445 0
0.499461 0.884959 0
0.327602 0.608294 0
0.485186 0.717584 0
0.499461 0.884959 0
0.681701 0.987057 0
0.485186 0.717584 0
0.663103 0.800727 0
0.327602 0.608294 0
0.485186 0.717584 0
0.305867 0.471025 0
0.453688 0.555922 0
0.485186 0.717584 0
0.663103 0.800727 0
0.453688 0.555922 0
0.620704 0.620704 0
0.681701 0.987057 0
0.877913 1.0531 0
0.663103 0.800727 0
0.854782 0.854782 0
0.877913 1.0531 0
1.08083 1.08083 0
0.854782 0.854782 0
1.0531 0.877913 0
0.663103 0.800727 0
0.854782 0.854782 0
0.620704 0.620704 0
0.800727 0.663103 0
0.854782 0.854782 0
1.0531 0.877913 0
0.800727 0.663103 0
0.987057 0.681701 0
0.305867 0.471025 0
0.453688 0.555922 0
0.273385 0.343767 0
0.406 0.406 0
0.453688 0.555922 0
0.620704 0.620704 0
0.406 0.406 0
0.555922 0.453688 0
0.273385 0.343767 0
0.406 0.406 0
0.231252 0.231252 0
0.343767 0.273385 0
0.406 0.406 0
0.555922 0.453688 0
0.343767 0.273385 0
0.471025 0.305867 0
0.620704 0.620704 0
0.800727 0.663103 0
0.555922 0.453688 0
0.717584 0.485186 0
0.800727 0.663103 0
0.987057 0.681701 0
0.717584 0.485186 0
0.884959 0.499461 0
0.555922 0.453688 0
0.717584 0.485186 0
0.471025 0.305867 0
0.608294 0.327602 0
0.717584 0.485186 0
0.884959 0.499461 0
0.608294 0.327602 0
0.750445 0.337901 0
0 0 0
0.0199329 0.0631591 0
0 0 0
0.015464 0.0374585 0
0.0199329 0.0631591 0
0.0663457 0.124221 0
0.015464 0.0374585 0
0.051729 0.0737577 0
0 0 0
0.015464 0.0374585 0
0 0 0
0.0105421 0.0179468 0
0.015464 0.0374585 0
0.051729 0.0737577 0
0.0105421 0.0179468 0
0.0354067 0.0354067 0
0.0663457 0.124221 0
0.137638 0.180936 0
0.051729 0.0737577 0
0.107554 0.107554 0
0.137638 0.180936 0
0.231252 0.231252 0
0.107554 0.107554 0
0.180936 0.137638 0
0.051729 0.0737577 0
0.107554 0.107554 0
0.0354067 0.0354067 0
0.0737577 0.051729 0
0.107554 0.107554 0
0.180936 0.137638 0
0.0737577 0.051729 0
0.124221 0.0663457 0
0 0 0
0.0105421 0.0179468 0
0 0 0
0.00532407 0.00532407 0
0.0105421 0.0179468 0
0.0354067 0.0354067 0
0.00532407 0.00532407 0
0.0179468 0.0105421 0
0 0 0
0.00532407 0.00532407 0
0 0 0
0 0 0
0.00532407 0.00532407 0
0.0179468 0.0105421 0
0 0 0
0 0 0
0.0354067 0.0354067 0
0.0737577 0.051729 0
0.0179468 0.0105421 0
0.0374585 0.015464 0
0.0737577 0.051729 0
0.124221 0.0663457 0
0.0374585 0.015464 0
0.0631591 0.0199329 0
0.0179468 0.0105421 0
0.0374585 0.015464 0
0 0 0
0 0 0
0.0374585 0.015464 0
0.0631591 0.0199329 0
0 0 0
0 0 0
0.231252 0.231252 0
0.343767 0.273385 0
0.180936 0.137638 0
0.269189 0.162965 0
0.343767 0.273385 0
0.471025 0.305867 0
0.269189 0.162965 0
0.369048 0.182677 0
0.180936 0.137638 0
0.269189 0.162965 0
0.124221 0.0663457 0
0.184946 0.0787694 0
0.269189 0.162965 0
0.369048 0.182677 0
0.184946 0.0787694 0
0.253681 0.0886009 0
0.471025 0.305867 0
0.608294 0.327602 0
0.369048 0.182677 0
0.47679 0.196131 0
0.608294 0.327602 0
0.750445 0.337901 0
0.47679 0.196131 0
0.588387 0.202922 0
0.369048 0.182677 0
0.47679 0.196131 0
0.253681 0.0886009 0
0.327858 0.0955402 0
0.47679 0.196131 0
0.588387 0.202922 0
0.327858 0.0955402 0
0.404701 0.0993949 0
0.124221 0.0663457 0
0.184946 0.0787694 0
0.0631591 0.0199329 0
0.0941024 0.0238154 0
0.184946 0.0787694 0
0.253681 0.0886009 0
0.0941024 0.0238154 0
0.129137 0.0270019 0
0.0631591 0.0199329 0
0.0941024 0.0238154 0
0 0 0
0 0 0
0.0941024 0.0238154 0
0.129137 0.0270019 0
0 0 0
0 0 0
0.253681 0.0886009 0
0.327858 0.0955402 0
0.129137 0.0270019 0
0.166954 0.0294089 0
0.327858 0.0955402 0
0.404701 0.0993949 0
0.166954 0.0294089 0
0.206133 0.0309812 0
0.129137 0.0270019 0
0.166954 0.0294089 0
0 0 0
0 0 0
0.166954 0.0294089 0
0.206133 0.0309812 0
0 0 0
0 0 0
1.08083 1.08083 0
1.28292 1.06943 0
1.0531 0.877913 0
1.25068 0.869455 0
1.28292 1.06943 0
1.47664 1.01955 0
1.25068 0.869455 0
1.44012 0.829937 0
1.0531 0.877913 0
1.25068 0.869455 0
0.987057 0.681701 0
1.17273 0.67598 0
1.25068 0.869455 0
1.44012 0.829937 0
1.17273 0.67598 0
1.3508 0.646338 0
1.47664 1.01955 0
1.65475 0.933315 0
1.44012 0.829937 0
1.61434 0.761058 0
1.65475 0.933315 0
1.81059 0.814215 0
1.61434 0.761058 0
1.76679 0.665619 0
1.44012 0.829937 0
1.61434 0.761058 0
1.3508 0.646338 0
1.51459 0.594072 0
1.61434 0.761058 0
1.76679 0.665619 0
1.51459 0.594072 0
1.65792 0.521328 0
0.987057 0.681701 0
1.17273 0.67598 0
0.884959 0.499461 0
1.05178 0.496133 0
1.17273 0.67598 0
1.3508 0.646338 0
1.05178 0.496133 0
1.2118 0.475481 0
0.884959 0.499461 0
1.05178 0.496133 0
0.750445 0.337901 0
0.892153 0.336504 0
1.05178 0.496133 0
1.2118 0.475481 0
0.892153 0.336504 0
1.02809 0.323587 0
1.3508 0.646338 0
1.51459 0.594072 0
1.2118 0.475481 0
1.35899 0.438433 0
1.51459 0.594072 0
1.65792 0.521328 0
1.35899 0.438433 0
1.48782 0.386529 0
1.2118 0.475481 0
1.35899 0.438433 0
1.02809 0.323587 0
1.15315 0.299757 0
1.35899 0.438433 0
1.48782 0.386529 0
1.15315 0.299757 0
1.26262 0.266024 0
1.81059 0.814215 0
1.93832 0.666968 0
1.76679 0.665619 0
1.89175 0.547417 0
1.93832 0.666968 0
2.03313 0.497342 0
1.89175 0.547417 0
1.98453 0.411096 0
1.76679 0.665619 0
1.89175 0.547417 0
1.65792 0.521328 0
1.77543 0.431013 0
1.89175 0.547417 0
1.98453 0.411096 0
1.77543 0.431013 0
1.86267 0.326689 0
2.03313 0.497342 0
2.09149 0.311939 0
1.98453 0.411096 0
2.04163 0.261966 0
2.09149 0.311939 0
2.11118 0.117928 0
2.04163 0.261966 0
2.0609 0.105803 0
1.98453 0.411096 0
2.04163 0.261966 0
1.86267 0.326689 0
1.91636 0.212427 0
2.04163 0.261966 0
2.0609 0.105803 0
1.91636 0.212427 0
1.93448 0.0926583 0
1.65792 0.521328 0
1.77543 0.431013 0
1.48782 0.386529 0
1.59343 0.321861 0
1.77543 0.431013 0
1.86267 0.326689 0
1.59343 0.321861 0
1.67185 0.246989 0
1.48782 0.386529 0
1.59343 0.321861 0
1.26262 0.266024 0
1.35236 0.223763 0
1.59343 0.321861 0
1.67185 0.246989 0
1.35236 0.223763 0
1.419 0.17466 0
1.86267 0.326689 0
1.91636 0.212427 0
1.67185 0.246989 0
1.72012 0.164846 0
1.91636 0.212427 0
1.93448 0.0926583 0
1.72012 0.164846 0
1.73641 0.0786213 0
1.67185 0.246989 0
1.72012 0.164846 0
1.419 0.17466 0
1.46002 0.120647 0
1.72012 0.164846 0
1.73641 0.0786213 0
1.46002 0.120647 0
1.47386 0.0638268 0
0.750445 0.337901 0
0.892153 0.336504 0
0.588387 0.202922 0
0.699649 0.202891 0
0.892153 0.336504 0
1.02809 0.323587 0
0.699649 0.202891 0
0.806394 0.196134 0
0.588387 0.202922 0
0.699649 0.202891 0
0.404701 0.0993949 0
0.481321 0.100086 0
0.699649 0.202891 0
0.806394 0.196134 0
0.481321 0.100086 0
0.554836 0.0976503 0
1.02809 0.323587 0
1.15315 0.299757 0
0.806394 0.196134 0
0.904602 0.182993 0
1.15315 0.299757 0
1.26262 0.266024 0
0.904602 0.182993 0
0.990569 0.164045 0
0.806394 0.196134 0
0.904602 0.182993 0
0.554836 0.0976503 0
0.622475 0.0922369 0
0.904602 0.182993 0
0.990569 0.164045 0
0.622475 0.0922369 0
0.681686 0.0841022 0
0.404701 0.0993949 0
0.481321 0.100086 0
0.206133 0.0309812 0
0.245202 0.0316929 0
0.481321 0.100086 0
0.554836 0.0976503 0
0.245202 0.0316929 0
0.282689 0.031548 0
0.206133 0.0309812 0
0.245202 0.0316929 0
0 0 0
0 0 0
0.245202 0.0316929 0
0.282689 0.031548 0
0 0 0
0 0 0
0.554836 0.0976503 0
0.622475 0.0922369 0
0.282689 0.031548 0
0.317182 0.0305803 0
0.622475 0.0922369 0
0.681686 0.0841022 0
0.317182 0.0305803 0
0.347376 0.028851 0
0.282689 0.031548 0
0.317182 0.0305803 0
0 0 0
0 0 0
0.317182 0.0305803 0
0.347376 0.028851 0
0 0 0
0 0 0
1.26262 0.266024 0
1.35236 0.223763 0
0.990569 0.164045 0
1.06105 0.140079 0
1.35236 0.223763 0
1.419 0.17466 0
1.06105 0.140079 0
1.11339 0.112061 0
0.990569 0.164045 0
1.06105 0.140079 0
0.681686 0.0841022 0
0.730233 0.0735991 0
1.06105 0.140079 0
1.11339 0.112061 0
0.730233 0.0735991 0
0.766282 0.0611629 0
1.419 0.17466 0
1.46002 0.120647 0
1.11339 0.112061 0
1.1456 0.0811041 0
1.46002 0.120647 0
1.47386 0.0638268 0
1.1456 0.0811041 0
1.15647 0.0484171 0
1.11339 0.112061 0
1.1456 0.0811041 0
0.766282 0.0611629 0
0.78847 0.0472944 0
1.1456 0.0811041 0
1.15647 0.0484171 0
0.78847 0.0472944 0
0.795958 0.0325406 0
0.681686 0.0841022 0
0.730233 0.0735991 0
0.347376 0.028851 0
0.372134 0.0264468 0
0.730233 0.0735991 0
0.766282 0.0611629 0
0.372134 0.0264468 0
0.390517 0.0234759 0
0.347376 0.028851 0
0.372134 0.0264468 0
0 0 0
0 0 0
0.372134 0.0264468 0
0.390517 0.0234759 0
0 0 0
0 0 0
0.766282 0.0611629 0
0.78847 0.0472944 0
0.390517 0.0234759 0
0.401833 0.0200642 0
0.78847 0.0472944 0
0.795958 0.0325406 0
0.401833 0.0200642 0
0.405651 0.0163497 0
0.390517 0.0234759 0
0.401833 0.0200642 0
0 0 0
0 0 0
0.401833 0.0200642 0
0.405651 0.0163497 0
0 0 0
0 0 0
0.16677 0.16677 0
0.165967 -0.222814 0
0.554748 0.165967 0
0.550218 -0.219883 0
0.165967 -0.222814 0
0.163566 -0.599061 0
0.550218 -0.219883 0
0.536779 -0.592532 0
0.554748 0.165967 0
0.550218 -0.219883 0
0.926195 0.163566 0
0.918087 -0.211224 0
0.550218 -0.219883 0
0.536779 -0.592532 0
0.918087 -0.211224 0
0.894057 -0.573214 0
0.163566 -0.599061 0
0.15959 -0.947588 0
0.536779 -0.592532 0
0.514878 -0.937733 0
0.15959 -0.947588 0
0.154077 -1.25512 0
0.514878 -0.937733 0
0.485242 -1.24234 0
0.536779 -0.592532 0
0.514878 -0.937733 0
0.894057 -0.573214 0
0.854959 -0.908567 0
0.514878 -0.937733 0
0.485242 -1.24234 0
0.854959 -0.908567 0
0.802181 -1.20451 0
0.926195 0.163566 0
0.918087 -0.211224 0
1.26677 0.15959 0
1.25538 -0.197239 0
0.918087 -0.211224 0
0.894057 -0.573214 0
1.25538 -0.197239 0
1.22161 -0.541918 0
1.26677 0.15959 0
1.25538 -0.197239 0
1.56328 0.154077 0
1.54901 -0.178577 0
1.25538 -0.197239 0
1.22161 -0.541918 0
1.54901 -0.178577 0
1.50674 -0.499956 0
0.894057 -0.573214 0
0.854959 -0.908567 0
1.22161 -0.541918 0
1.1667 -0.861274 0
0.854959 -0.908567 0
0.802181 -1.20451 0
1.1667 -0.861274 0
1.09265 -1.14315 0
1.22161 -0.541918 0
1.1667 -0.861274 0
1.50674 -0.499956 0
1.43803 -0.797779 0
1.1667 -0.861274 0
1.09265 -1.14315 0
1.43803 -0.797779 0
1.3454 -1.06071 0
0.154077 -1.25512 0
0.14708 -1.51 0
0.485242 -1.24234 0
0.448852 -1.49481 0
0.14708 -1.51 0
0.138667 -1.70265 0
0.448852 -1.49481 0
0.406903 -1.68565 0
0.485242 -1.24234 0
0.448852 -1.49481 0
0.802181 -1.20451 0
0.737594 -1.44984 0
0.448852 -1.49481 0
0.406903 -1.68565 0
0.737594 -1.44984 0
0.66348 -1.63532 0
0.138667 -1.70265 0
0.128918 -1.8259 0
0.406903 -1.68565 0
0.360766 -1.80777 0
0.128918 -1.8259 0
0.117928 -1.8753 0
0.360766 -1.80777 0
0.311931 -1.85674 0
0.406903 -1.68565 0
0.360766 -1.80777 0
0.66348 -1.63532 0
0.582446 -1.75406 0
0.360766 -1.80777 0
0.311931 -1.85674 0
0.582446 -1.75406 0
0.497328 -1.80179 0
0.802181 -1.20451 0
0.737594 -1.44984 0
1.09265 -1.14315 0
1.00215 -1.37686 0
0.737594 -1.44984 0
0.66348 -1.63532 0
1.00215 -1.37686 0
0.898483 -1.55364 0
1.09265 -1.14315 0
1.00215 -1.37686 0
1.3454 -1.06071 0
1.23226 -1.2788 0
1.00215 -1.37686 0
0.898483 -1.55364 0
1.23226 -1.2788 0
1.10279 -1.44384 0
0.66348 -1.63532 0
0.582446 -1.75406 0
0.898483 -1.55364 0
0.785389 -1.66691 0
0.582446 -1.75406 0
0.497328 -1.80179 0
0.785389 -1.66691 0
0.666946 -1.71259 0
0.898483 -1.55364 0
0.785389 -1.66691 0
1.10279 -1.44384 0
0.961709 -1.54974 0
0.785389 -1.66691 0
0.666946 -1.71259 0
0.961709 -1.54974 0
0.814187 -1.59266 0
1.56328 0.154077 0
1.54901 -0.178577 0
1.80418 0.14708 0
1.78756 -0.156114 0
1.54901 -0.178577 0
1.50674 -0.499956 0
1.78756 -0.156114 0
1.73834 -0.449096 0
1.80418 0.14708 0
1.78756 -0.156114 0
1.98 0.138667 0
1.96166 -0.130911 0
1.78756 -0.156114 0
1.73834 -0.449096 0
1.96166 -0.130911 0
1.90732 -0.391487 0
1.50674 -0.499956 0
1.43803 -0.797779 0
1.73834 -0.449096 0
1.65835 -0.720673 0
1.43803 -0.797779 0
1.3454 -1.06071 0
1.65835 -0.720673 0
1.55055 -0.960512 0
1.73834 -0.449096 0
1.65835 -0.720673 0
1.90732 -0.391487 0
1.81902 -0.633106 0
1.65835 -0.720673 0
1.55055 -0.960512 0
1.81902 -0.633106 0
1.70005 -0.846582 0
1.98 0.138667 0
1.96166 -0.130911 0
2.08376 0.128918 0
2.06437 -0.104177 0
1.96166 -0.130911 0
1.90732 -0.391487 0
2.06437 -0.104177 0
2.00695 -0.329576 0
2.08376 0.128918 0
2.06437 -0.104177 0
2.11118 0.117928 0
2.09148 -0.0772169 0
2.06437 -0.104177 0
2.00695 -0.329576 0
2.09148 -0.0772169 0
2.03312 -0.266016 0
1.90732 -0.391487 0
1.81902 -0.633106 0
2.00695 -0.329576 0
1.91364 -0.538672 0
1.81902 -0.633106 0
1.70005 -0.846582 0
1.91364 -0.538672 0
1.78793 -0.72352 0
2.00695 -0.329576 0
1.91364 -0.538672 0
2.03312 -0.266016 0
1.93829 -0.441264 0
1.91364 -0.538672 0
1.78793 -0.72352 0
1.93829 -0.441264 0
1.81056 -0.596307 0
1.3454 -1.06071 0
1.23226 -1.2788 0
1.55055 -0.960512 0
1.41895 -1.15954 0
1.23226 -1.2788 0
1.10279 -1.44384 0
1.41895 -1.15954 0
1.26841 -1.31028 0
1.55055 -0.960512 0
1.41895 -1.15954 0
1.70005 -0.846582 0
1.55485 -1.02385 0
1.41895 -1.15954 0
1.26841 -1.31028 0
1.55485 -1.02385 0
1.38882 -1.15825 0
1.10279 -1.44384 0
0.961709 -1.54974 0
1.26841 -1.31028 0
1.10451 -1.40717 0
0.961709 -1.54974 0
0.814187 -1.59266 0
1.10451 -1.40717 0
0.933281 -1.44672 0
1.26841 -1.31028 0
1.10451 -1.40717 0
1.38882 -1.15825 0
1.20814 -1.24484 0
1.10451 -1.40717 0
0.933281 -1.44672 0
1.20814 -1.24484 0
1.01951 -1.28051 0
1.70005 -0.846582 0
1.55485 -1.02385 0
1.78793 -0.72352 0
1.63454 -0.87714 0
1.55485 -1.02385 0
1.38882 -1.15825 0
1.63454 -0.87714 0
1.4592 -0.993785 0
1.78793 -0.72352 0
1.63454 -0.87714 0
1.81056 -0.596307 0
1.65471 -0.7253 0
1.63454 -0.87714 0
1.4592 -0.993785 0
1.65471 -0.7253 0
1.47659 -0.823429 0
1.38882 -1.15825 0
1.20814 -1.24484 0
1.4592 -0.993785 0
1.26844 -1.06916 0
1.20814 -1.24484 0
1.01951 -1.28051 0
1.26844 -1.06916 0
1.06938 -1.10058 0
1.4592 -0.993785 0
1.26844 -1.06916 0
1.47659 -0.823429 0
1.28287 -0.887092 0
1.26844 -1.06916 0
1.06938 -1.10058 0
1.28287 -0.887092 0
1.08078 -0.91404 0
0.117928 -1.8753 0
0.105803 -1.84926 0
0.311931 -1.85674 0
0.261959 -1.83101 0
0.105803 -1.84926 0
0.0926583 -1.74914 0
0.261959 -1.83101 0
0.21242 -1.73191 0
0.311931 -1.85674 0
0.261959 -1.83101 0
0.497328 -1.80179 0
0.411082 -1.77696 0
0.261959 -1.83101 0
0.21242 -1.73191 0
0.411082 -1.77696 0
0.326675 -1.68088 0
0.0926583 -1.74914 0
0.0786213 -1.57913 0
0.21242 -1.73191 0
0.16484 -1.5636 0
0.0786213 -1.57913 0
0.0638268 -1.34617 0
0.16484 -1.5636 0
0.120642 -1.33295 0
0.21242 -1.73191 0
0.16484 -1.5636 0
0.326675 -1.68088 0
0.246977 -1.5176 0
0.16484 -1.5636 0
0.120642 -1.33295 0
0.246977 -1.5176 0
0.17465 -1.29377 0
0.497328 -1.80179 0
0.411082 -1.77696 0
0.666946 -1.71259 0
0.547396 -1.68923 0
0.411082 -1.77696 0
0.326675 -1.68088 0
0.547396 -1.68923 0
0.430993 -1.59806 0
0.666946 -1.71259 0
0.547396 -1.68923 0
0.814187 -1.59266 0
0.665591 -1.57127 0
0.547396 -1.68923 0
0.430993 -1.59806 0
0.665591 -1.57127 0
0.521301 -1.48669 0
0.326675 -1.68088 0
0.246977 -1.5176 0
0.430993 -1.59806 0
0.321842 -1.44293 0
0.246977 -1.5176 0
0.17465 -1.29377 0
0.321842 -1.44293 0
0.223747 -1.23018 0
0.430993 -1.59806 0
0.321842 -1.44293 0
0.521301 -1.48669 0
0.386505 -1.34252 0
0.321842 -1.44293 0
0.223747 -1.23018 0
0.386505 -1.34252 0
0.266003 -1.14465 0
0.0638268 -1.34617 0
0.0484171 -1.05961 0
0.120642 -1.33295 0
0.0810998 -1.0492 0
0.0484171 -1.05961 0
0.0325406 -0.730853 0
0.0810998 -1.0492 0
0.0472915 -0.723678 0
0.120642 -1.33295 0
0.0810998 -1.0492 0
0.17465 -1.29377 0
0.112053 -1.01839 0
0.0810998 -1.0492 0
0.0472915 -0.723678 0
0.112053 -1.01839 0
0.0611571 -0.702428 0
0.0325406 -0.730853 0
0.0163497 -0.372938 0
0.0472915 -0.723678 0
0.0200627 -0.369277 0
0.0163497 -0.372938 0
0 0 0
0.0200627 -0.369277 0
0 0 0
0.0472915 -0.723678 0
0.0200627 -0.369277 0
0.0611571 -0.702428 0
0.023473 -0.358433 0
0.0200627 -0.369277 0
0 0 0
0.023473 -0.358433 0
0 0 0
0.17465 -1.29377 0
0.112053 -1.01839 0
0.223747 -1.23018 0
0.140066 -0.968359 0
0.112053 -1.01839 0
0.0611571 -0.702428 0
0.140066 -0.968359 0
0.0735905 -0.667932 0
0.223747 -1.23018 0
0.140066 -0.968359 0
0.266003 -1.14465 0
0.164029 -0.90108 0
0.140066 -0.968359 0
0.0735905 -0.667932 0
0.164029 -0.90108 0
0.0840909 -0.621538 0
0.0611571 -0.702428 0
0.023473 -0.358433 0
0.0735905 -0.667932 0
0.0264424 -0.340829 0
0.023473 -0.358433 0
0 0 0
0.0264424 -0.340829 0
0 0 0
0.0735905 -0.667932 0
0.0264424 -0.340829 0
0.0840909 -0.621538 0
0.0288452 -0.317154 0
0.0264424 -0.340829 0
0 0 0
0.0288452 -0.317154 0
0 0 0
0.814187 -1.59266 0
0.665591 -1.57127 0
0.933281 -1.44672 0
0.761024 -1.4277 0
0.665591 -1.57127 0
0.521301 -1.48669 0
0.761024 -1.4277 0
0.594039 -1.35113 0
0.933281 -1.44672 0
0.761024 -1.4277 0
1.01951 -1.28051 0
0.829897 -1.26416 0
0.761024 -1.4277 0
0.594039 -1.35113 0
0.829897 -1.26416 0
0.6463 -1.1967 0
0.521301 -1.48669 0
0.386505 -1.34252 0
0.594039 -1.35113 0
0.438403 -1.22028 0
0.386505 -1.34252 0
0.266003 -1.14465 0
0.438403 -1.22028 0
0.299731 -1.04055 0
0.594039 -1.35113 0
0.438403 -1.22028 0
0.6463 -1.1967 0
0.475446 -1.08103 0
0.438403 -1.22028 0
0.299731 -1.04055 0
0.475446 -1.08103 0
0.323557 -0.921929 0
1.01951 -1.28051 0
0.829897 -1.26416 0
1.06938 -1.10058 0
0.86941 -1.08709 0
0.829897 -1.26416 0
0.6463 -1.1967 0
0.86941 -1.08709 0
0.675937 -1.02946 0
1.06938 -1.10058 0
0.86941 -1.08709 0
1.08078 -0.91404 0
0.877863 -0.903459 0
0.86941 -1.08709 0
0.675937 -1.02946 0
0.877863 -0.903459 0
0.681654 -0.856 0
0.6463 -1.1967 0
0.475446 -1.08103 0
0.675937 -1.02946 0
0.496094 -0.93021 0
0.475446 -1.08103 0
0.323557 -0.921929 0
0.496094 -0.93021 0
0.33647 -0.793455 0
0.675937 -1.02946 0
0.496094 -0.93021 0
0.681654 -0.856 0
0.499418 -0.773753 0
0.496094 -0.93021 0
0.33647 -0.793455 0
0.499418 -0.773753 0
0.337864 -0.660164 0
0.266003 -1.14465 0
0.164029 -0.90108 0
0.299731 -1.04055 0
0.182973 -0.819177 0
0.164029 -0.90108 0
0.0840909 -0.621538 0
0.182973 -0.819177 0
0.0922229 -0.56506 0
0.299731 -1.04055 0
0.182973 -0.819177 0
0.323557 -0.921929 0
0.19611 -0.725858 0
0.182973 -0.819177 0
0.0922229 -0.56506 0
0.19611 -0.725858 0
0.097634 -0.500706 0
0.0840909 -0.621538 0
0.0288452 -0.317154 0
0.0922229 -0.56506 0
0.0305732 -0.288332 0
0.0288452 -0.317154 0
0 0 0
0.0305732 -0.288332 0
0 0 0
0.0922229 -0.56506 0
0.0305732 -0.288332 0
0.097634 -0.500706 0
0.0315397 -0.255491 0
0.0305732 -0.288332 0
0 0 0
0.0315397 -0.255491 0
0 0 0
0.323557 -0.921929 0
0.19611 -0.725858 0
0.33647 -0.793455 0
0.202864 -0.624777 0
0.19611 -0.725858 0
0.097634 -0.500706 0
0.202864 -0.624777 0
0.100068 -0.430998 0
0.33647 -0.793455 0
0.202864 -0.624777 0
0.337864 -0.660164 0
0.202892 -0.519899 0
0.202864 -0.624777 0
0.100068 -0.430998 0
0.202892 -0.519899 0
0.0993745 -0.35867 0
0.097634 -0.500706 0
0.0315397 -0.255491 0
0.100068 -0.430998 0
0.0316834 -0.219917 0
0.0315397 -0.255491 0
0 0 0
0.0316834 -0.219917 0
0 0 0
0.100068 -0.430998 0
0.0316834 -0.219917 0
0.0993745 -0.35867 0
0.0309708 -0.183004 0
0.0316834 -0.219917 0
0 0 0
0.0309708 -0.183004 0
0 0 0
2.11118 0.117928 0
2.09148 -0.0772169 0
2.0609 0.105803 0
2.04162 -0.0513793 0
2.09148 -0.0772169 0
2.03312 -0.266016 0
2.04162 -0.0513793 0
1.98451 -0.203555 0
2.0609 0.105803 0
2.04162 -0.0513793 0
1.93448 0.0926583 0
1.91635 -0.0280028 0
2.04162 -0.0513793 0
1.98451 -0.203555 0
1.91635 -0.0280028 0
1.86265 -0.144932 0
2.03312 -0.266016 0
1.93829 -0.441264 0
1.98451 -0.203555 0
1.89173 -0.344921 0
1.93829 -0.441264 0
1.81056 -0.596307 0
1.89173 -0.344921 0
1.76676 -0.470117 0
1.98451 -0.203555 0
1.89173 -0.344921 0
1.86265 -0.144932 0
1.7754 -0.253675 0
1.89173 -0.344921 0
1.76676 -0.470117 0
1.7754 -0.253675 0
1.65789 -0.350114 0
1.93448 0.0926583 0
1.91635 -0.0280028 0
1.73641 0.0786213 0
1.72011 -0.00836066 0
1.91635 -0.0280028 0
1.86265 -0.144932 0
1.72011 -0.00836066 0
1.67183 -0.0927676 0
1.73641 0.0786213 0
1.72011 -0.00836066 0
1.47386 0.0638268 0
1.46001 0.00639164 0
1.72011 -0.00836066 0
1.67183 -0.0927676 0
1.46001 0.00639164 0
1.41898 -0.0494593 0
1.86265 -0.144932 0
1.7754 -0.253675 0
1.67183 -0.0927676 0
1.59341 -0.171388 0
1.7754 -0.253675 0
1.65789 -0.350114 0
1.59341 -0.171388 0
1.48778 -0.241254 0
1.67183 -0.0927676 0
1.59341 -0.171388 0
1.41898 -0.0494593 0
1.35234 -0.101605 0
1.59341 -0.171388 0
1.48778 -0.241254 0
1.35234 -0.101605 0
1.26258 -0.148086 0
1.81056 -0.596307 0
1.65471 -0.7253 0
1.76676 -0.470117 0
1.6143 -0.574432 0
1.65471 -0.7253 0
1.47659 -0.823429 0
1.6143 -0.574432 0
1.44008 -0.653985 0
1.76676 -0.470117 0
1.6143 -0.574432 0
1.65789 -0.350114 0
1.51454 -0.430633 0
1.6143 -0.574432 0
1.44008 -0.653985 0
1.51454 -0.430633 0
1.35076 -0.492247 0
1.47659 -0.823429 0
1.28287 -0.887092 0
1.44008 -0.653985 0
1.25063 -0.705871 0
1.28287 -0.887092 0
1.08078 -0.91404 0
1.25063 -0.705871 0
1.05305 -0.728272 0
1.44008 -0.653985 0
1.25063 -0.705871 0
1.35076 -0.492247 0
1.17268 -0.532721 0
1.25063 -0.705871 0
1.05305 -0.728272 0
1.17268 -0.532721 0
0.987003 -0.550653 0
1.65789 -0.350114 0
1.51454 -0.430633 0
1.48778 -0.241254 0
1.35894 -0.299754 0
1.51454 -0.430633 0
1.35076 -0.492247 0
1.35894 -0.299754 0
1.21175 -0.344734 0
1.48778 -0.241254 0
1.35894 -0.299754 0
1.26258 -0.148086 0
1.15311 -0.187175 0
1.35894 -0.299754 0
1.21175 -0.344734 0
1.15311 -0.187175 0
1.02805 -0.217444 0
1.35076 -0.492247 0
1.17268 -0.532721 0
1.21175 -0.344734 0
1.05173 -0.374578 0
1.17268 -0.532721 0
0.987003 -0.550653 0
1.05173 -0.374578 0
0.884905 -0.388268 0
1.21175 -0.344734 0
1.05173 -0.374578 0
1.02805 -0.217444 0
0.892104 -0.237823 0
1.05173 -0.374578 0
0.884905 -0.388268 0
0.892104 -0.237823 0
0.750394 -0.247633 0
1.47386 0.0638268 0
1.46001 0.00639164 0
1.15647 0.0484171 0
1.14559 0.015264 0
1.46001 0.00639164 0
1.41898 -0.0494593 0
1.14559 0.015264 0
1.11337 -0.0170876 0
1.15647 0.0484171 0
1.14559 0.015264 0
0.795958 0.0325406 0
0.788464 0.0174734 0
1.14559 0.015264 0
1.11337 -0.0170876 0
0.788464 0.0174734 0
0.76627 0.00266773 0
1.41898 -0.0494593 0
1.35234 -0.101605 0
1.11337 -0.0170876 0
1.06103 -0.0474137 0
1.35234 -0.101605 0
1.26258 -0.148086 0
1.06103 -0.0474137 0
0.99054 -0.0745815 0
1.11337 -0.0170876 0
1.06103 -0.0474137 0
0.76627 0.00266773 0
0.730215 -0.0113203 0
1.06103 -0.0474137 0
0.99054 -0.0745815 0
0.730215 -0.0113203 0
0.681663 -0.0239751 0
0.795958 0.0325406 0
0.788464 0.0174734 0
0.405651 0.0163497 0
0.401829 0.0124777 0
0.788464 0.0174734 0
0.76627 0.00266773 0
0.401829 0.0124777 0
0.390511 0.00859503 0
0.405651 0.0163497 0
0.401829 0.0124777 0
0 0 0
0 0 0
0.401829 0.0124777 0
0.390511 0.00859503 0
0 0 0
0 0 0
0.76627 0.00266773 0
0.730215 -0.0113203 0
0.390511 0.00859503 0
0.372124 0.00484442 0
0.730215 -0.0113203 0
0.681663 -0.0239751 0
0.372124 0.00484442 0
0.347363 0.00135904 0
0.390511 0.00859503 0
0.372124 0.00484442 0
0 0 0
0 0 0
0.372124 0.00484442 0
0.347363 0.00135904 0
0 0 0
0 0 0
1.26258 -0.148086 0
1.15311 -0.187175 0
0.99054 -0.0745815 0
0.904567 -0.0975921 0
1.15311 -0.187175 0
1.02805 -0.217444 0
0.904567 -0.0975921 0
0.806354 -0.115618 0
0.99054 -0.0745815 0
0.904567 -0.0975921 0
0.681663 -0.0239751 0
0.622448 -0.0348405 0
0.904567 -0.0975921 0
0.806354 -0.115618 0
0.622448 -0.0348405 0
0.554806 -0.0435375 0
1.02805 -0.217444 0
0.892104 -0.237823 0
0.806354 -0.115618 0
0.699606 -0.128036 0
0.892104 -0.237823 0
0.750394 -0.247633 0
0.699606 -0.128036 0
0.588341 -0.134449 0
0.806354 -0.115618 0
0.699606 -0.128036 0
0.554806 -0.0435375 0
0.481288 -0.0497781 0
0.699606 -0.128036 0
0.588341 -0.134449 0
0.481288 -0.0497781 0
0.404665 -0.0533762 0
0.681663 -0.0239751 0
0.622448 -0.0348405 0
0.347363 0.00135904 0
0.317166 -0.00174237 0
0.622448 -0.0348405 0
0.554806 -0.0435375 0
0.317166 -0.00174237 0
0.282672 -0.00436001 0
0.347363 0.00135904 0
0.317166 -0.00174237 0
0 0 0
0 0 0
0.317166 -0.00174237 0
0.282672 -0.00436001 0
0 0 0
0 0 0
0.554806 -0.0435375 0
0.481288 -0.0497781 0
0.282672 -0.00436001 0
0.245183 -0.00641662 0
0.481288 -0.0497781 0
0.404665 -0.0533762 0
0.245183 -0.00641662 0
0.206112 -0.00786025 0
0.282672 -0.00436001 0
0.245183 -0.00641662 0
0 0 0
0 0 0
0.245183 -0.00641662 0
0.206112 -0.00786025 0
0 0 0
0 0 0
1.08078 -0.91404 0
0.877863 -0.903459 0
1.05305 -0.728272 0
0.854729 -0.720525 0
0.877863 -0.903459 0
0.681654 -0.856 0
0.854729 -0.720525 0
0.663052 -0.683148 0
1.05305 -0.728272 0
0.854729 -0.720525 0
0.987003 -0.550653 0
0.800673 -0.545528 0
0.854729 -0.720525 0
0.663052 -0.683148 0
0.800673 -0.545528 0
0.620651 -0.517735 0
0.681654 -0.856 0
0.499418 -0.773753 0
0.663052 -0.683148 0
0.485139 -0.617816 0
0.499418 -0.773753 0
0.337864 -0.660164 0
0.485139 -0.617816 0
0.327562 -0.527298 0
0.663052 -0.683148 0
0.485139 -0.617816 0
0.620651 -0.517735 0
0.45364 -0.468552 0
0.485139 -0.617816 0
0.327562 -0.527298 0
0.45364 -0.468552 0
0.305825 -0.400095 0
0.987003 -0.550653 0
0.800673 -0.545528 0
0.884905 -0.388268 0
0.71753 -0.385425 0
0.800673 -0.545528 0
0.620651 -0.517735 0
0.71753 -0.385425 0
0.55587 -0.366321 0
0.884905 -0.388268 0
0.71753 -0.385425 0
0.750394 -0.247633 0
0.608242 -0.246616 0
0.71753 -0.385425 0
0.55587 -0.366321 0
0.608242 -0.246616 0
0.470975 -0.234943 0
0.620651 -0.517735 0
0.45364 -0.468552 0
0.55587 -0.366321 0
0.405952 -0.331869 0
0.45364 -0.468552 0
0.305825 -0.400095 0
0.405952 -0.331869 0
0.273342 -0.283586 0
0.55587 -0.366321 0
0.405952 -0.331869 0
0.470975 -0.234943 0
0.34372 -0.213206 0
0.405952 -0.331869 0
0.273342 -0.283586 0
0.34372 -0.213206 0
0.231212 -0.182399 0
0.337864 -0.660164 0
0.202892 -0.519899 0
0.327562 -0.527298 0
0.196099 -0.415348 0
0.202892 -0.519899 0
0.0993745 -0.35867 0
0.196099 -0.415348 0
0.0955182 -0.286563 0
0.327562 -0.527298 0
0.196099 -0.415348 0
0.305825 -0.400095 0
0.182643 -0.315242 0
0.196099 -0.415348 0
0.0955182 -0.286563 0
0.182643 -0.315242 0
0.0885777 -0.217518 0
0.0993745 -0.35867 0
0.0309708 -0.183004 0
0.0955182 -0.286563 0
0.0293977 -0.146205 0
0.0309708 -0.183004 0
0 0 0
0.0293977 -0.146205 0
0 0 0
0.0955182 -0.286563 0
0.0293977 -0.146205 0
0.0885777 -0.217518 0
0.0269901 -0.110968 0
0.0293977 -0.146205 0
0 0 0
0.0269901 -0.110968 0
0 0 0
0.305825 -0.400095 0
0.182643 -0.315242 0
0.273342 -0.283586 0
0.162931 -0.223538 0
0.182643 -0.315242 0
0.0885777 -0.217518 0
0.162931 -0.223538 0
0.0787457 -0.154265 0
0.273342 -0.283586 0
0.162931 -0.223538 0
0.231212 -0.182399 0
0.137605 -0.143879 0
0.162931 -0.223538 0
0.0787457 -0.154265 0
0.137605 -0.143879 0
0.0663223 -0.0993169 0
0.0885777 -0.217518 0
0.0269901 -0.110968 0
0.0787457 -0.154265 0
0.0238033 -0.0786873 0
0.0269901 -0.110968 0
0 0 0
0.0238033 -0.0786873 0
0 0 0
0.0787457 -0.154265 0
0.0238033 -0.0786873 0
0.0663223 -0.0993169 0
0.0199208 -0.0506471 0
0.0238033 -0.0786873 0
0 0 0
0.0199208 -0.0506471 0
0 0 0
0.750394 -0.247633 0
0.608242 -0.246616 0
0.588341 -0.134449 0
0.476745 -0.134699 0
0.608242 -0.246616 0
0.470975 -0.234943 0
0.476745 -0.134699 0
0.369003 -0.128878 0
0.588341 -0.134449 0
0.476745 -0.134699 0
0.404665 -0.0533762 0
0.327822 -0.0542541 0
0.476745 -0.134699 0
0.369003 -0.128878 0
0.327822 -0.0542541 0
0.253645 -0.0524453 0
0.470975 -0.234943 0
0.34372 -0.213206 0
0.369003 -0.128878 0
0.269148 -0.117318 0
0.34372 -0.213206 0
0.231212 -0.182399 0
0.269148 -0.117318 0
0.180899 -0.100582 0
0.369003 -0.128878 0
0.269148 -0.117318 0
0.253645 -0.0524453 0
0.184913 -0.0480926 0
0.269148 -0.117318 0
0.180899 -0.100582 0
0.184913 -0.0480926 0
0.124191 -0.0414435 0
0.404665 -0.0533762 0
0.327822 -0.0542541 0
0.206112 -0.00786025 0
0.166933 -0.00866601 0
0.327822 -0.0542541 0
0.253645 -0.0524453 0
0.166933 -0.00866601 0
0.129117 -0.00883686 0
0.206112 -0.00786025 0
0.166933 -0.00866601 0
0 0 0
0 0 0
0.166933 -0.00866601 0
0.129117 -0.00883686 0
0 0 0
0 0 0
0.253645 -0.0524453 0
0.184913 -0.0480926 0
0.129117 -0.00883686 0
0.0940825 -0.00840334 0
0.184913 -0.0480926 0
0.124191 -0.0414435 0
0.0940825 -0.00840334 0
0.0631409 -0.00742239 0
0.129117 -0.00883686 0
0.0940825 -0.00840334 0
0 0 0
0 0 0
0.0940825 -0.00840334 0
0.0631409 -0.00742239 0
0 0 0
0 0 0
0.231212 -0.182399 0
0.137605 -0.143879 0
0.180899 -0.100582 0
0.107523 -0.0794463 0
0.137605 -0.143879 0
0.0663223 -0.0993169 0
0.107523 -0.0794463 0
0.0517069 -0.0548693 0
0.180899 -0.100582 0
0.107523 -0.0794463 0
0.124191 -0.0414435 0
0.0737322 -0.0328412 0
0.107523 -0.0794463 0
0.0517069 -0.0548693 0
0.0737322 -0.0328412 0
0.0353877 -0.0227151 0
0.0663223 -0.0993169 0
0.0199208 -0.0506471 0
0.0517069 -0.0548693 0
0.0154524 -0.0279699 0
0.0199208 -0.0506471 0
0 0 0
0.0154524 -0.0279699 0
0 0 0
0.0517069 -0.0548693 0
0.0154524 -0.0279699 0
0.0353877 -0.0227151 0
0.0105317 -0.0115724 0
0.0154524 -0.0279699 0
0 0 0
0.0105317 -0.0115724 0
0 0 0
0.124191 -0.0414435 0
0.0737322 -0.0328412 0
0.0631409 -0.00742239 0
0.0374427 -0.00597556 0
0.0737322 -0.0328412 0
0.0353877 -0.0227151 0
0.0374427 -0.00597556 0
0.0179342 -0.00416714 0
0.0631409 -0.00742239 0
0.0374427 -0.00597556 0
0 0 0
0 0 0
0.0374427 -0.00597556 0
0.0179342 -0.00416714 0
0 0 0
0 0 0
0.0353877 -0.0227151 0
0.0105317 -0.0115724 0
0.0179342 -0.00416714 0
0.00531599 -0.00212364 0
0.0105317 -0.0115724 0
0 0 0
0.00531599 -0.00212364 0
0 0 0
0.0179342 -0.00416714 0
0.00531599 -0.00212364 0
0 0 0
0 0 0
0.00531599 -0.00212364 0
0 0 0
0 0 0
0 0 0
SCALARS Ux double 1
LOOKUP_TABLE default
0 0 0 -0.00212364 0 0 -0.00212364 -0.0115724 0 -0.00212364 0 -0.00416714 -0.00212364 -0.0115724 -0.00416714 -0.0227151 0 0 -0.0115724 -0.0279699 0 0 -0.0279699 -0.0506471 -0.0115724 -0.0279699 -0.0227151 -0.0548693 -0.0279699 -0.0506471 -0.0548693 -0.0993169 0 -0.00416714 0 -0.00597556 -0.00416714 -0.0227151 -0.00597556 -0.0328412 0 -0.00597556 0 -0.00742239 -0.00597556 -0.0328412 -0.00742239 -0.0414435 -0.0227151 -0.0548693 -0.0328412 -0.0794463 -0.0548693 -0.0993169 -0.0794463 -0.143879 -0.0328412 -0.0794463 -0.0414435 -0.100582 -0.0794463 -0.143879 -0.100582 -0.182399 0 0 -0.0506471 -0.0786873 0 0 -0.0786873 -0.110968 -0.0506471 -0.0786873 -0.0993169 -0.154265 -0.0786873 -0.110968 -0.154265 -0.217518 0 0 -0.110968 -0.146205 0 0 -0.146205 -0.183004 -0.110968 -0.146205 -0.217518 -0.286563 -0.146205 -0.183004 -0.286563 -0.35867 -0.0993169 -0.154265 -0.143879 -0.223538 -0.154265 -0.217518 -0.223538 -0.315242 -0.143879 -0.223538 -0.182399 -0.283586 -0.223538 -0.315242 -0.283586 -0.400095 -0.217518 -0.286563 -0.315242 -0.415348 -0.286563 -0.35867 -0.415348 -0.519899 -0.315242 -0.415348 -0.400095 -0.527298 -0.415348 -0.519899 -0.527298 -0.660164 0 -0.00742239 0 -0.00840334 -0.00742239 -0.0414435 -0.00840334 -0.0480926 0 -0.00840334 0 -0.00883686 -0.00840334 -0.0480926 -0.00883686 -0.0524453 -0.0414435 -0.100582 -0.0480926 -0.117318 -0.100582 -0.182399 -0.117318 -0.213206 -0.0480926 -0.117318 -0.0524453 -0.128878 -0.117318 -0.213206 -0.128878 -0.234943 0 -0.00883686 0 -0.00866601 -0.00883686 -0.0524453 -0.00866601 -0.0542541 0 -0.00866601 0 -0.00786025 -0.00866601 -0.0542541 -0.00786025 -0.0533762 -0.0524453 -0.128878 -0.0542541 -0.134699 -0.128878 -0.234943 -0.134699 -0.246616 -0.0542541 -0.134699 -0.0533762 -0.134449 -0.134699 -0.246616 -0.134449 -0.247633 -0.182399 -0.283586 -0.213206 -0.331869 -0.283586 -0.400095 -0.331869 -0.468552 -0.213206 -0.331869 -0.234943 -0.366321 -0.331869 -0.468552 -0.366321 -0.517735 -0.400095 -0.527298 -0.468552 -0.617816 -0.527298 -0.660164 -0.617816 -0.773753 -0.468552 -0.617816 -0.517735 -0.683148 -0.617816 -0.773753 -0.683148 -0.856 -0.234943 -0.366321 -0.246616 -0.385425 -0.366321 -0.517735 -0.385425 -0.545528 -0.246616 -0.385425 -0.247633 -0.388268 -0.385425 -0.545528 -0.388268 -0.550653 -0.517735 -0.683148 -0.545528 -0.720525 -0.683148 -0.856 -0.720525 -0.903459 -0.545528 -0.720525 -0.550653 -0.728272 -0.720525 -0.903459 -0.728272 -0.91404 0 0 -0.183004 -0.219917 0 0 -0.219917 -0.255491 -0.183004 -0.219917 -0.35867 -0.430998 -0.219917 -0.255491 -0.430998 -0.500706 0 0 -0.255491 -0.288332 0 0 -0.288332 -0.317154 -0.255491 -0.288332 -0.500706 -0.56506 -0.288332 -0.317154 -0.56506 -0.621538 -0.35867 -0.430998 -0.519899 -0.624777 -0.430998 -0.500706 -0.624777 -0.725858 -0.519899 -0.624777 -0.660164 -0.793455 -0.624777 -0.725858 -0.793455 -0.921929 -0.500706 -0.56506 -0.725858 -0.819177 -0.56506 -0.621538 -0.819177 -0.90108 -0.725858 -0.819177 -0.921929 -1.04055 -0.819177 -0.90108 -1.04055 -1.14465 0 0 -0.317154 -0.340829 0 0 -0.340829 -0.358433 -0.317154 -0.340829 -0.621538 -0.667932 -0.340829 -0.358433 -0.667932 -0.702428 0 0 -0.358433 -0.369277 0 0 -0.369277 -0.372938 -0.358433 -0.369277 -0.702428 -0.723678 -0.369277 -0.372938 -0.723678 -0.730853 -0.621538 -0.667932 -0.90108 -0.968359 -0.667932 -0.702428 -0.968359 -1.01839 -0.90108 -0.968359 -1.14465 -1.23018 -0.968359 -1.01839 -1.23018 -1.29377 -0.702428 -0.723678 -1.01839 -1.0492 -0.723678 -0.730853 -1.0492 -1.05961 -1.01839 -1.0492 -1.29377 -1.33295 -1.0492 -1.05961 -1.33295 -1.34617 -0.660164 -0.793455 -0.773753 -0.93021 -0.793455 -0.921929 -0.93021 -1.08103 -0.773753 -0.93021 -0.856 -1.02946 -0.93021 -1.08103 -1.02946 -1.1967 -0.921929 -1.04055 -1.08103 -1.22028 -1.04055 -1.14465 -1.22028 -1.34252 -1.08103 -1.22028 -1.1967 -1.35113 -1.22028 -1.34252 -1.35113 -1.48669 -0.856 -1.02946 -0.903459 -1.08709 -1.02946 -1.1967 -1.08709 -1.26416 -0.903459 -1.08709 -0.91404 -1.10058 -1.08709 -1.26416 -1.10058 -1.28051 -1.1967 -1.35113 -1.26416 -1.4277 -1.35113 -1.48669 -1.4277 -1.57127 -1.26416 -1.4277 -1.28051 -1.44672 -1.4277 -1.57127 -1.44672 -1.59266 -1.14465 -1.23018 -1.34252 -1.44293 -1.23018 -1.29377 -1.44293 -1.5176 -1.34252 -1.44293 -1.48669 -1.59806 -1.44293 -1.5176 -1.59806 -1.68088 -1.29377 -1.33295 -1.5176 -1.5636 -1.33295 -1.34617 -1.5636 -1.57913 -1.5176 -1.5636 -1.68088 -1.73191 -1.5636 -1.57913 -1.73191 -1.74914 -1.48669 -1.59806 -1.57127 -1.68923 -1.59806 -1.68088 -1.68923 -1.77696 -1.57127 -1.68923 -1.59266 -1.71259 -1.68923 -1.77696 -1.71259 -1.80179 -1.68088 -1.73191 -1.77696 -1.83101 -1.73191 -1.74914 -1.83101 -1.84926 -1.77696 -1.83101 -1.80179 -1.85674 -1.83101 -1.84926 -1.85674 -1.8753 0 -0.00786025 0 -0.00641662 -0.00786025 -0.0533762 -0.00641662 -0.0497781 0 -0.00641662 0 -0.00436001 -0.00641662 -0.0497781 -0.00436001 -0.0435375 -0.0533762 -0.134449 -0.0497781 -0.128036 -0.134449 -0.247633 -0.128036 -0.237823 -0.0497781 -0.128036 -0.0435375 -0.115618 -0.128036 -0.237823 -0.115618 -0.217444 0 -0.00436001 0 -0.00174237 -0.00436001 -0.0435375 -0.00174237 -0.0348405 0 -0.00174237 0 0.00135904 -0.00174237 -0.0348405 0.00135904 -0.0239751 -0.0435375 -0.115618 -0.0348405 -0.0975921 -0.115618 -0.217444 -0.0975921 -0.187175 -0.0348405 -0.0975921 -0.0239751 -0.0745815 -0.0975921 -0.187175 -0.0745815 -0.148086 -0.247633 -0.388268 -0.237823 -0.374578 -0.388268 -0.550653 -0.374578 -0.532721 -0.237823 -0.374578 -0.217444 -0.344734 -0.374578 -0.532721 -0.344734 -0.492247 -0.550653 -0.728272 -0.532721 -0.705871 -0.728272 -0.91404 -0.705871 -0.887092 -0.532721 -0.705871 -0.492247 -0.653985 -0.705871 -0.887092 -0.653985 -0.823429 -0.217444 -0.344734 -0.187175 -0.299754 -0.344734 -0.492247 -0.299754 -0.430633 -0.187175 -0.299754 -0.148086 -0.241254 -0.299754 -0.430633 -0.241254 -0.350114 -0.492247 -0.653985 -0.430633 -0.574432 -0.653985 -0.823429 -0.574432 -0.7253 -0.430633 -0.574432 -0.350114 -0.470117 -0.574432 -0.7253 -0.470117 -0.596307 0 0.00135904 0 0.00484442 0.00135904 -0.0239751 0.00484442 -0.0113203 0 0.00484442 0 0.00859503 0.00484442 -0.0113203 0.00859503 0.00266773 -0.0239751 -0.0745815 -0.0113203 -0.0474137 -0.0745815 -0.148086 -0.0474137 -0.101605 -0.0113203 -0.0474137 0.00266773 -0.0170876 -0.0474137 -0.101605 -0.0170876 -0.0494593 0 0.00859503 0 0.0124777 0.00859503 0.00266773 0.0124777 0.0174734 0 0.0124777 0 0.0163497 0.0124777 0.0174734 0.0163497 0.0325406 0.00266773 -0.0170876 0.0174734 0.015264 -0.0170876 -0.0494593 0.015264 0.00639164 0.0174734 0.015264 0.0325406 0.0484171 0.015264 0.00639164 0.0484171 0.0638268 -0.148086 -0.241254 -0.101605 -0.171388 -0.241254 -0.350114 -0.171388 -0.253675 -0.101605 -0.171388 -0.0494593 -0.0927676 -0.171388 -0.253675 -0.0927676 -0.144932 -0.350114 -0.470117 -0.253675 -0.344921 -0.470117 -0.596307 -0.344921 -0.441264 -0.253675 -0.344921 -0.144932 -0.203555 -0.344921 -0.441264 -0.203555 -0.266016 -0.0494593 -0.0927676 0.00639164 -0.00836066 -0.0927676 -0.144932 -0.00836066 -0.0280028 0.00639164 -0.00836066 0.0638268 0.0786213 -0.00836066 -0.0280028 0.0786213 0.0926583 -0.144932 -0.203555 -0.0280028 -0.0513793 -0.203555 -0.266016 -0.0513793 -0.0772169 -0.0280028 -0.0513793 0.0926583 0.105803 -0.0513793 -0.0772169 0.105803 0.117928 -0.91404 -1.10058 -0.887092 -1.06916 -1.10058 -1.28051 -1.06916 -1.24484 -0.887092 -1.06916 -0.823429 -0.993785 -1.06916 -1.24484 -0.993785 -1.15825 -1.28051 -1.44672 -1.24484 -1.40717 -1.44672 -1.59266 -1.40717 -1.54974 -1.24484 -1.40717 -1.15825 -1.31028 -1.40717 -1.54974 -1.31028 -1.44384 -0.823429 -0.993785 -0.7253 -0.87714 -0.993785 -1.15825 -0.87714 -1.02385 -0.7253 -0.87714 -0.596307 -0.72352 -0.87714 -1.02385 -0.72352 -0.846582 -1.15825 -1.31028 -1.02385 -1.15954 -1.31028 -1.44384 -1.15954 -1.2788 -1.02385 -1.15954 -0.846582 -0.960512 -1.15954 -1.2788 -0.960512 -1.06071 -1.59266 -1.71259 -1.54974 -1.66691 -1.71259 -1.80179 -1.66691 -1.75406 -1.54974 -1.66691 -1.44384 -1.55364 -1.66691 -1.75406 -1.55364 -1.63532 -1.80179 -1.85674 -1.75406 -1.80777 -1.85674 -1.8753 -1.80777 -1.8259 -1.75406 -1.80777 -1.63532 -1.68565 -1.80777 -1.8259 -1.68565 -1.70265 -1.44384 -1.55364 -1.2788 -1.37686 -1.55364 -1.63532 -1.37686 -1.44984 -1.2788 -1.37686 -1.06071 -1.14315 -1.37686 -1.44984 -1.14315 -1.20451 -1.63532 -1.68565 -1.44984 -1.49481 -1.68565 -1.70265 -1.49481 -1.51 -1.44984 -1.49481 -1.20451 -1.24234 -1.49481 -1.51 -1.24234 -1.25512 -0.596307 -0.72352 -0.441264 -0.538672 -0.72352 -0.846582 -0.538672 -0.633106 -0.441264 -0.538672 -0.266016 -0.329576 -0.538672 -0.633106 -0.329576 -0.391487 -0.846582 -0.960512 -0.633106 -0.720673 -0.960512 -1.06071 -0.720673 -0.797779 -0.633106 -0.720673 -0.391487 -0.449096 -0.720673 -0.797779 -0.449096 -0.499956 -0.266016 -0.329576 -0.0772169 -0.104177 -0.329576 -0.391487 -0.104177 -0.130911 -0.0772169 -0.104177 0.117928 0.128918 -0.104177 -0.130911 0.128918 0.138667 -0.391487 -0.449096 -0.130911 -0.156114 -0.449096 -0.499956 -0.156114 -0.178577 -0.130911 -0.156114 0.138667 0.14708 -0.156114 -0.178577 0.14708 0.154077 -1.06071 -1.14315 -0.797779 -0.861274 -1.14315 -1.20451 -0.861274 -0.908567 -0.797779 -0.861274 -0.499956 -0.541918 -0.861274 -0.908567 -0.541918 -0.573214 -1.20451 -1.24234 -0.908567 -0.937733 -1.24234 -1.25512 -0.937733 -0.947588 -0.908567 -0.937733 -0.573214 -0.592532 -0.937733 -0.947588 -0.592532 -0.599061 -0.499956 -0.541918 -0.178577 -0.197239 -0.541918 -0.573214 -0.197239 -0.211224 -0.178577 -0.197239 0.154077 0.15959 -0.197239 -0.211224 0.15959 0.163566 -0.573214 -0.592532 -0.211224 -0.219883 -0.592532 -0.599061 -0.219883 -0.222814 -0.211224 -0.219883 0.163566 0.165967 -0.219883 -0.222814 0.165967 0.16677 0 0 -0.372938 -0.369273 0 0 -0.369273 -0.358426 -0.372938 -0.369273 -0.730853 -0.723672 -0.369273 -0.358426 -0.723672 -0.702416 0 0 -0.358426 -0.340819 0 0 -0.340819 -0.317141 -0.358426 -0.340819 -0.702416 -0.667914 -0.340819 -0.317141 -0.667914 -0.621515 -0.730853 -0.723672 -1.05961 -1.0492 -0.723672 -0.702416 -1.0492 -1.01837 -1.05961 -1.0492 -1.34617 -1.33294 -1.0492 -1.01837 -1.33294 -1.29375 -0.702416 -0.667914 -1.01837 -0.968337 -0.667914 -0.621515 -0.968337 -0.90105 -1.01837 -0.968337 -1.29375 -1.23015 -0.968337 -0.90105 -1.23015 -1.14462 0 0 -0.317141 -0.288316 0 0 -0.288316 -0.255473 -0.317141 -0.288316 -0.621515 -0.565032 -0.288316 -0.255473 -0.565032 -0.500675 0 0 -0.255473 -0.219897 0 0 -0.219897 -0.182984 -0.255473 -0.219897 -0.500675 -0.430965 -0.219897 -0.182984 -0.430965 -0.358634 -0.621515 -0.565032 -0.90105 -0.819143 -0.565032 -0.500675 -0.819143 -0.725818 -0.90105 -0.819143 -1.14462 -1.04051 -0.819143 -0.725818 -1.04051 -0.921884 -0.500675 -0.430965 -0.725818 -0.624734 -0.430965 -0.358634 -0.624734 -0.519854 -0.725818 -0.624734 -0.921884 -0.793406 -0.624734 -0.519854 -0.793406 -0.660113 -1.34617 -1.33294 -1.57913 -1.56359 -1.33294 -1.29375 -1.56359 -1.51758 -1.57913 -1.56359 -1.74914 -1.7319 -1.56359 -1.51758 -1.7319 -1.68086 -1.29375 -1.23015 -1.51758 -1.4429 -1.23015 -1.14462 -1.4429 -1.34248 -1.51758 -1.4429 -1.68086 -1.59803 -1.4429 -1.34248 -1.59803 -1.48665 -1.74914 -1.7319 -1.84926 -1.831 -1.7319 -1.68086 -1.831 -1.77694 -1.84926 -1.831 -1.8753 -1.85673 -1.831 -1.77694 -1.85673 -1.80177 -1.68086 -1.59803 -1.77694 -1.68921 -1.59803 -1.48665 -1.68921 -1.57123 -1.77694 -1.68921 -1.80177 -1.71257 -1.68921 -1.57123 -1.71257 -1.59263 -1.14462 -1.04051 -1.34248 -1.22024 -1.04051 -0.921884 -1.22024 -1.08098 -1.34248 -1.22024 -1.48665 -1.35108 -1.22024 -1.08098 -1.35108 -1.19665 -0.921884 -0.793406 -1.08098 -0.930158 -0.793406 -0.660113 -0.930158 -0.773699 -1.08098 -0.930158 -1.19665 -1.02941 -0.930158 -0.773699 -1.02941 -0.855946 -1.48665 -1.35108 -1.57123 -1.42765 -1.35108 -1.19665 -1.42765 -1.26411 -1.57123 -1.42765 -1.59263 -1.44668 -1.42765 -1.26411 -1.44668 -1.28047 -1.19665 -1.02941 -1.26411 -1.08704 -1.02941 -0.855946 -1.08704 -0.903406 -1.26411 -1.08704 -1.28047 -1.10053 -1.08704 -0.903406 -1.10053 -0.91399 0 0 -0.182984 -0.146183 0 0 -0.146183 -0.110947 -0.182984 -0.146183 -0.358634 -0.286527 -0.146183 -0.110947 -0.286527 -0.217483 0 0 -0.110947 -0.0786674 0 0 -0.0786674 -0.0506288 -0.110947 -0.0786674 -0.217483 -0.154232 -0.0786674 -0.0506288 -0.154232 -0.0992868 -0.358634 -0.286527 -0.519854 -0.415302 -0.286527 -0.217483 -0.415302 -0.315197 -0.519854 -0.415302 -0.660113 -0.527246 -0.415302 -0.315197 -0.527246 -0.400045 -0.217483 -0.154232 -0.315197 -0.223496 -0.154232 -0.0992868 -0.223496 -0.143841 -0.315197 -0.223496 -0.400045 -0.283539 -0.223496 -0.143841 -0.283539 -0.182358 0 0 -0.0506288 -0.027954 0 0 -0.027954 -0.0115597 -0.0506288 -0.027954 -0.0992868 -0.0548439 -0.027954 -0.0115597 -0.0548439 -0.0226961 0 0 -0.0115597 -0.00211556 0 0 -0.00211556 0 -0.0115597 -0.00211556 -0.0226961 -0.00415674 -0.00211556 0 -0.00415674 0 -0.0992868 -0.0548439 -0.143841 -0.0794156 -0.0548439 -0.0226961 -0.0794156 -0.0328191 -0.143841 -0.0794156 -0.182358 -0.100549 -0.0794156 -0.0328191 -0.100549 -0.0414201 -0.0226961 -0.00415674 -0.0328191 -0.00596394 -0.00415674 0 -0.00596394 0 -0.0328191 -0.00596394 -0.0414201 -0.0074103 -0.00596394 0 -0.0074103 0 -0.660113 -0.527246 -0.773699 -0.617762 -0.527246 -0.400045 -0.617762 -0.468499 -0.773699 -0.617762 -0.855946 -0.683094 -0.617762 -0.468499 -0.683094 -0.517683 -0.400045 -0.283539 -0.468499 -0.331821 -0.283539 -0.182358 -0.331821 -0.213164 -0.468499 -0.331821 -0.517683 -0.366273 -0.331821 -0.213164 -0.366273 -0.234901 -0.855946 -0.683094 -0.903406 -0.720472 -0.683094 -0.517683 -0.720472 -0.545478 -0.903406 -0.720472 -0.91399 -0.728222 -0.720472 -0.545478 -0.728222 -0.550606 -0.517683 -0.366273 -0.545478 -0.385379 -0.366273 -0.234901 -0.385379 -0.246576 -0.545478 -0.385379 -0.550606 -0.388224 -0.385379 -0.246576 -0.388224 -0.247596 -0.182358 -0.100549 -0.213164 -0.117284 -0.100549 -0.0414201 -0.117284 -0.048069 -0.213164 -0.117284 -0.234901 -0.128845 -0.117284 -0.048069 -0.128845 -0.0524222 -0.0414201 -0.0074103 -0.048069 -0.00839124 -0.0074103 0 -0.00839124 0 -0.048069 -0.00839124 -0.0524222 -0.00882509 -0.00839124 0 -0.00882509 0 -0.234901 -0.128845 -0.246576 -0.134668 -0.128845 -0.0524222 -0.134668 -0.0542321 -0.246576 -0.134668 -0.247596 -0.134419 -0.134668 -0.0542321 -0.134419 -0.0533558 -0.0524222 -0.00882509 -0.0542321 -0.00865483 -0.00882509 0 -0.00865483 0 -0.0542321 -0.00865483 -0.0533558 -0.00784987 -0.00865483 0 -0.00784987 0 -1.8753 -1.85673 -1.8259 -1.80776 -1.85673 -1.80177 -1.80776 -1.75405 -1.8259 -1.80776 -1.70265 -1.68564 -1.80776 -1.75405 -1.68564 -1.6353 -1.80177 -1.71257 -1.75405 -1.66688 -1.71257 -1.59263 -1.66688 -1.54971 -1.75405 -1.66688 -1.6353 -1.55362 -1.66688 -1.54971 -1.55362 -1.44382 -1.70265 -1.68564 -1.51 -1.49481 -1.68564 -1.6353 -1.49481 -1.44983 -1.51 -1.49481 -1.25512 -1.24234 -1.49481 -1.44983 -1.24234 -1.2045 -1.6353 -1.55362 -1.44983 -1.37685 -1.55362 -1.44382 -1.37685 -1.27877 -1.44983 -1.37685 -1.2045 -1.14313 -1.37685 -1.27877 -1.14313 -1.06069 -1.59263 -1.44668 -1.54971 -1.40713 -1.44668 -1.28047 -1.40713 -1.2448 -1.54971 -1.40713 -1.44382 -1.31025 -1.40713 -1.2448 -1.31025 -1.15822 -1.28047 -1.10053 -1.2448 -1.06911 -1.10053 -0.91399 -1.06911 -0.887046 -1.2448 -1.06911 -1.15822 -0.993746 -1.06911 -0.887046 -0.993746 -0.823388 -1.44382 -1.31025 -1.27877 -1.15951 -1.31025 -1.15822 -1.15951 -1.02381 -1.27877 -1.15951 -1.06069 -0.960489 -1.15951 -1.02381 -0.960489 -0.846557 -1.15822 -0.993746 -1.02381 -0.877107 -0.993746 -0.823388 -0.877107 -0.725266 -1.02381 -0.877107 -0.846557 -0.723493 -0.877107 -0.725266 -0.723493 -0.596279 -1.25512 -1.24234 -0.947588 -0.937729 -1.24234 -1.2045 -0.937729 -0.908559 -0.947588 -0.937729 -0.599061 -0.592529 -0.937729 -0.908559 -0.592529 -0.573209 -1.2045 -1.14313 -0.908559 -0.861262 -1.14313 -1.06069 -0.861262 -0.797765 -0.908559 -0.861262 -0.573209 -0.54191 -0.861262 -0.797765 -0.54191 -0.499947 -0.599061 -0.592529 -0.222814 -0.219881 -0.592529 -0.573209 -0.219881 -0.211221 -0.222814 -0.219881 0.16677 0.165967 -0.219881 -0.211221 0.165967 0.163566 -0.573209 -0.54191 -0.211221 -0.197235 -0.54191 -0.499947 -0.197235 -0.178572 -0.211221 -0.197235 0.163566 0.15959 -0.197235 -0.178572 0.15959 0.154077 -1.06069 -0.960489 -0.797765 -0.720656 -0.960489 -0.846557 -0.720656 -0.633087 -0.797765 -0.720656 -0.499947 -0.449085 -0.720656 -0.633087 -0.449085 -0.391474 -0.846557 -0.723493 -0.633087 -0.538652 -0.723493 -0.596279 -0.538652 -0.441242 -0.633087 -0.538652 -0.391474 -0.329562 -0.538652 -0.441242 -0.329562 -0.266002 -0.499947 -0.449085 -0.178572 -0.156108 -0.449085 -0.391474 -0.156108 -0.130905 -0.178572 -0.156108 0.154077 0.14708 -0.156108 -0.130905 0.14708 0.138667 -0.391474 -0.329562 -0.130905 -0.10417 -0.329562 -0.266002 -0.10417 -0.0772096 -0.130905 -0.10417 0.138667 0.128918 -0.10417 -0.0772096 0.128918 0.117928 -0.91399 -0.728222 -0.887046 -0.705826 -0.728222 -0.550606 -0.705826 -0.532677 -0.887046 -0.705826 -0.823388 -0.653945 -0.705826 -0.532677 -0.653945 -0.492208 -0.550606 -0.388224 -0.532677 -0.374538 -0.388224 -0.247596 -0.374538 -0.237789 -0.532677 -0.374538 -0.492208 -0.344699 -0.374538 -0.237789 -0.344699 -0.217415 -0.823388 -0.653945 -0.725266 -0.574398 -0.653945 -0.492208 -0.574398 -0.4306 -0.725266 -0.574398 -0.596279 -0.470089 -0.574398 -0.4306 -0.470089 -0.350088 -0.492208 -0.344699 -0.4306 -0.299724 -0.344699 -0.217415 -0.299724 -0.187149 -0.4306 -0.299724 -0.350088 -0.24123 -0.299724 -0.187149 -0.24123 -0.148065 -0.247596 -0.134419 -0.237789 -0.12801 -0.134419 -0.0533558 -0.12801 -0.0497596 -0.237789 -0.12801 -0.217415 -0.115595 -0.12801 -0.0497596 -0.115595 -0.0435211 -0.0533558 -0.00784987 -0.0497596 -0.00640721 -0.00784987 0 -0.00640721 0 -0.0497596 -0.00640721 -0.0435211 -0.00435171 -0.00640721 0 -0.00435171 0 -0.217415 -0.115595 -0.187149 -0.0975719 -0.115595 -0.0435211 -0.0975719 -0.0348266 -0.187149 -0.0975719 -0.148065 -0.0745651 -0.0975719 -0.0348266 -0.0745651 -0.0239637 -0.0435211 -0.00435171 -0.0348266 -0.00173529 -0.00435171 0 -0.00173529 0 -0.0348266 -0.00173529 -0.0239637 0.00136481 -0.00173529 0 0.00136481 0 -0.596279 -0.470089 -0.441242 -0.3449 -0.470089 -0.350088 -0.3449 -0.253654 -0.441242 -0.3449 -0.266002 -0.203541 -0.3449 -0.253654 -0.203541 -0.144919 -0.350088 -0.24123 -0.253654 -0.17137 -0.24123 -0.148065 -0.17137 -0.10159 -0.253654 -0.17137 -0.144919 -0.0927552 -0.17137 -0.10159 -0.0927552 -0.0494486 -0.266002 -0.203541 -0.0772096 -0.0513721 -0.203541 -0.144919 -0.0513721 -0.027996 -0.0772096 -0.0513721 0.117928 0.105803 -0.0513721 -0.027996 0.105803 0.0926583 -0.144919 -0.0927552 -0.027996 -0.00835443 -0.0927552 -0.0494486 -0.00835443 0.00639698 -0.027996 -0.00835443 0.0926583 0.0786213 -0.00835443 0.00639698 0.0786213 0.0638268 -0.148065 -0.0745651 -0.10159 -0.0474012 -0.0745651 -0.0239637 -0.0474012 -0.0113117 -0.10159 -0.0474012 -0.0494486 -0.0170792 -0.0474012 -0.0113117 -0.0170792 0.00267353 -0.0239637 0.00136481 -0.0113117 0.0048488 0.00136481 0 0.0048488 0 -0.0113117 0.0048488 0.00267353 0.00859798 0.0048488 0 0.00859798 0 -0.0494486 -0.0170792 0.00639698 0.0152682 -0.0170792 0.00267353 0.0152682 0.0174763 0.00639698 0.0152682 0.0638268 0.0484171 0.0152682 0.0174763 0.0484171 0.0325406 0.00267353 0.00859798 0.0174763 0.0124792 0.00859798 0 0.0124792 0 0.0174763 0.0124792 0.0325406 0.0163497 0.0124792 0 0.0163497 0 0 0.0163497 0 0.0200642 0.0163497 0.0325406 0.0200642 0.0472944 0 0.0200642 0 0.0234759 0.0200642 0.0472944 0.0234759 0.0611629 0.0325406 0.0484171 0.0472944 0.0811041 0.0484171 0.0638268 0.0811041 0.120647 0.0472944 0.0811041 0.0611629 0.112061 0.0811041 0.120647 0.112061 0.17466 0 0.0234759 0 0.0264468 0.0234759 0.0611629 0.0264468 0.0735991 0 0.0264468 0 0.028851 0.0264468 0.0735991 0.028851 0.0841022 0.0611629 0.112061 0.0735991 0.140079 0.112061 0.17466 0.140079 0.223763 0.0735991 0.140079 0.0841022 0.164045 0.140079 0.223763 0.164045 0.266024 0.0638268 0.0786213 0.120647 0.164846 0.0786213 0.0926583 0.164846 0.212427 0.120647 0.164846 0.17466 0.246989 0.164846 0.212427 0.246989 0.326689 0.0926583 0.105803 0.212427 0.261966 0.105803 0.117928 0.261966 0.311939 0.212427 0.261966 0.326689 0.411096 0.261966 0.311939 0.411096 0.497342 0.17466 0.246989 0.223763 0.321861 0.246989 0.326689 0.321861 0.431013 0.223763 0.321861 0.266024 0.386529 0.321861 0.431013 0.386529 0.521328 0.326689 0.411096 0.431013 0.547417 0.411096 0.497342 0.547417 0.666968 0.431013 0.547417 0.521328 0.665619 0.547417 0.666968 0.665619 0.814215 0 0.028851 0 0.0305803 0.028851 0.0841022 0.0305803 0.0922369 0 0.0305803 0 0.031548 0.0305803 0.0922369 0.031548 0.0976503 0.0841022 0.164045 0.0922369 0.182993 0.164045 0.266024 0.182993 0.299757 0.0922369 0.182993 0.0976503 0.196134 0.182993 0.299757 0.196134 0.323587 0 0.031548 0 0.0316929 0.031548 0.0976503 0.0316929 0.100086 0 0.0316929 0 0.0309812 0.0316929 0.100086 0.0309812 0.0993949 0.0976503 0.196134 0.100086 0.202891 0.196134 0.323587 0.202891 0.336504 0.100086 0.202891 0.0993949 0.202922 0.202891 0.336504 0.202922 0.337901 0.266024 0.386529 0.299757 0.438433 0.386529 0.521328 0.438433 0.594072 0.299757 0.438433 0.323587 0.475481 0.438433 0.594072 0.475481 0.646338 0.521328 0.665619 0.594072 0.761058 0.665619 0.814215 0.761058 0.933315 0.594072 0.761058 0.646338 0.829937 0.761058 0.933315 0.829937 1.01955 0.323587 0.475481 0.336504 0.496133 0.475481 0.646338 0.496133 0.67598 0.336504 0.496133 0.337901 0.499461 0.496133 0.67598 0.499461 0.681701 0.646338 0.829937 0.67598 0.869455 0.829937 1.01955 0.869455 1.06943 0.67598 0.869455 0.681701 0.877913 0.869455 1.06943 0.877913 1.08083 0.117928 0.128918 0.311939 0.360773 0.128918 0.138667 0.360773 0.40691 0.311939 0.360773 0.497342 0.58246 0.360773 0.40691 0.58246 0.663493 0.138667 0.14708 0.40691 0.448858 0.14708 0.154077 0.448858 0.485247 0.40691 0.448858 0.663493 0.737606 0.448858 0.485247 0.737606 0.802191 0.497342 0.58246 0.666968 0.78541 0.58246 0.663493 0.78541 0.898502 0.666968 0.78541 0.814215 0.961736 0.78541 0.898502 0.961736 1.10281 0.663493 0.737606 0.898502 1.00217 0.737606 0.802191 1.00217 1.09267 0.898502 1.00217 1.10281 1.23229 1.00217 1.09267 1.23229 1.34542 0.154077 0.15959 0.485247 0.514881 0.15959 0.163566 0.514881 0.536781 0.485247 0.514881 0.802191 0.854967 0.514881 0.536781 0.854967 0.894063 0.163566 0.165967 0.536781 0.550219 0.165967 0.16677 0.550219 0.554748 0.536781 0.550219 0.894063 0.91809 0.550219 0.554748 0.91809 0.926195 0.802191 0.854967 1.09267 1.16671 0.854967 0.894063 1.16671 1.22162 1.09267 1.16671 1.34542 1.43804 1.16671 1.22162 1.43804 1.50675 0.894063 0.91809 1.22162 1.25538 0.91809 0.926195 1.25538 1.26677 1.22162 1.25538 1.50675 1.54902 1.25538 1.26677 1.54902 1.56328 0.814215 0.961736 0.933315 1.10454 0.961736 1.10281 1.10454 1.26844 0.933315 1.10454 1.01955 1.20818 1.10454 1.26844 1.20818 1.38886 1.10281 1.23229 1.26844 1.41898 1.23229 1.34542 1.41898 1.55058 1.26844 1.41898 1.38886 1.55489 1.41898 1.55058 1.55489 1.70008 1.01955 1.20818 1.06943 1.26849 1.20818 1.38886 1.26849 1.45924 1.06943 1.26849 1.08083 1.28292 1.26849 1.45924 1.28292 1.47664 1.38886 1.55489 1.45924 1.63458 1.55489 1.70008 1.63458 1.78797 1.45924 1.63458 1.47664 1.65475 1.63458 1.78797 1.65475 1.81059 1.34542 1.43804 1.55058 1.65837 1.43804 1.50675 1.65837 1.73836 1.55058 1.65837 1.70008 1.81904 1.65837 1.73836 1.81904 1.90734 1.50675 1.54902 1.73836 1.78757 1.54902 1.56328 1.78757 1.80418 1.73836 1.78757 1.90734 1.96167 1.78757 1.80418 1.96167 1.98 1.70008 1.81904 1.78797 1.91366 1.81904 1.90734 1.91366 2.00696 1.78797 1.91366 1.81059 1.93832 1.91366 2.00696 1.93832 2.03313 1.90734 1.96167 2.00696 2.06438 1.96167 1.98 2.06438 2.08376 2.00696 2.06438 2.03313 2.09149 2.06438 2.08376 2.09149 2.11118 0 0.0309812 0 0.0294089 0.0309812 0.0993949 0.0294089 0.0955402 0 0.0294089 0 0.0270019 0.0294089 0.0955402 0.0270019 0.0886009 0.0993949 0.202922 0.0955402 0.196131 0.202922 0.337901 0.196131 0.327602 0.0955402 0.196131 0.0886009 0.182677 0.196131 0.327602 0.182677 0.305867 0 0.0270019 0 0.0238154 0.0270019 0.0886009 0.0238154 0.0787694 0 0.0238154 0 0.0199329 0.0238154 0.0787694 0.0199329 0.0663457 0.0886009 0.182677 0.0787694 0.162965 0.182677 0.305867 0.162965 0.273385 0.0787694 0.162965 0.0663457 0.137638 0.162965 0.273385 0.137638 0.231252 0.337901 0.499461 0.327602 0.485186 0.499461 0.681701 0.485186 0.663103 0.327602 0.485186 0.305867 0.453688 0.485186 0.663103 0.453688 0.620704 0.681701 0.877913 0.663103 0.854782 0.877913 1.08083 0.854782 1.0531 0.663103 0.854782 0.620704 0.800727 0.854782 1.0531 0.800727 0.987057 0.305867 0.453688 0.273385 0.406 0.453688 0.620704 0.406 0.555922 0.273385 0.406 0.231252 0.343767 0.406 0.555922 0.343767 0.471025 0.620704 0.800727 0.555922 0.717584 0.800727 0.987057 0.717584 0.884959 0.555922 0.717584 0.471025 0.608294 0.717584 0.884959 0.608294 0.750445 0 0.0199329 0 0.015464 0.0199329 0.0663457 0.015464 0.051729 0 0.015464 0 0.0105421 0.015464 0.051729 0.0105421 0.0354067 0.0663457 0.137638 0.051729 0.107554 0.137638 0.231252 0.107554 0.180936 0.051729 0.107554 0.0354067 0.0737577 0.107554 0.180936 0.0737577 0.124221 0 0.0105421 0 0.00532407 0.0105421 0.0354067 0.00532407 0.0179468 0 0.00532407 0 0 0.00532407 0.0179468 0 0 0.0354067 0.0737577 0.0179468 0.0374585 0.0737577 0.124221 0.0374585 0.0631591 0.0179468 0.0374585 0 0 0.0374585 0.0631591 0 0 0.231252 0.343767 0.180936 0.269189 0.343767 0.471025 0.269189 0.369048 0.180936 0.269189 0.124221 0.184946 0.269189 0.369048 0.184946 0.253681 0.471025 0.608294 0.369048 0.47679 0.608294 0.750445 0.47679 0.588387 0.369048 0.47679 0.253681 0.327858 0.47679 0.588387 0.327858 0.404701 0.124221 0.184946 0.0631591 0.0941024 0.184946 0.253681 0.0941024 0.129137 0.0631591 0.0941024 0 0 0.0941024 0.129137 0 0 0.253681 0.327858 0.129137 0.166954 0.327858 0.404701 0.166954 0.206133 0.129137 0.166954 0 0 0.166954 0.206133 0 0 1.08083 1.28292 1.0531 1.25068 1.28292 1.47664 1.25068 1.44012 1.0531 1.25068 0.987057 1.17273 1.25068 1.44012 1.17273 1.3508 1.47664 1.65475 1.44012 1.61434 1.65475 1.81059 1.61434 1.76679 1.44012 1.61434 1.3508 1.51459 1.61434 1.76679 1.51459 1.65792 0.987057 1.17273 0.884959 1.05178 1.17273 1.3508 1.05178 1.2118 0.884959 1.05178 0.750445 0.892153 1.05178 1.2118 0.892153 1.02809 1.3508 1.51459 1.2118 1.35899 1.51459 1.65792 1.35899 1.48782 1.2118 1.35899 1.02809 1.15315 1.35899 1.48782 1.15315 1.26262 1.81059 1.93832 1.76679 1.89175 1.93832 2.03313 1.89175 1.98453 1.76679 1.89175 1.65792 1.77543 1.89175 1.98453 1.77543 1.86267 2.03313 2.09149 1.98453 2.04163 2.09149 2.11118 2.04163 2.0609 1.98453 2.04163 1.86267 1.91636 2.04163 2.0609 1.91636 1.93448 1.65792 1.77543 1.48782 1.59343 1.77543 1.86267 1.59343 1.67185 1.48782 1.59343 1.26262 1.35236 1.59343 1.67185 1.35236 1.419 1.86267 1.91636 1.67185 1.72012 1.91636 1.93448 1.72012 1.73641 1.67185 1.72012 1.419 1.46002 1.72012 1.73641 1.46002 1.47386 0.750445 0.892153 0.588387 0.699649 0.892153 1.02809 0.699649 0.806394 0.588387 0.699649 0.404701 0.481321 0.699649 0.806394 0.481321 0.554836 1.02809 1.15315 0.806394 0.904602 1.15315 1.26262 0.904602 0.990569 0.806394 0.904602 0.554836 0.622475 0.904602 0.990569 0.622475 0.681686 0.404701 0.481321 0.206133 0.245202 0.481321 0.554836 0.245202 0.282689 0.206133 0.245202 0 0 0.245202 0.282689 0 0 0.554836 0.622475 0.282689 0.317182 0.622475 0.681686 0.317182 0.347376 0.282689 0.317182 0 0 0.317182 0.347376 0 0 1.26262 1.35236 0.990569 1.06105 1.35236 1.419 1.06105 1.11339 0.990569 1.06105 0.681686 0.730233 1.06105 1.11339 0.730233 0.766282 1.419 1.46002 1.11339 1.1456 1.46002 1.47386 1.1456 1.15647 1.11339 1.1456 0.766282 0.78847 1.1456 1.15647 0.78847 0.795958 0.681686 0.730233 0.347376 0.372134 0.730233 0.766282 0.372134 0.390517 0.347376 0.372134 0 0 0.372134 0.390517 0 0 0.766282 0.78847 0.390517 0.401833 0.78847 0.795958 0.401833 0.405651 0.390517 0.401833 0 0 0.401833 0.405651 0 0 0.16677 0.165967 0.554748 0.550218 0.165967 0.163566 0.550218 0.536779 0.554748 0.550218 0.926195 0.918087 0.550218 0.536779 0.918087 0.894057 0.163566 0.15959 0.536779 0.514878 0.15959 0.154077 0.514878 0.485242 0.536779 0.514878 0.894057 0.854959 0.514878 0.485242 0.854959 0.802181 0.926195 0.918087 1.26677 1.25538 0.918087 0.894057 1.25538 1.22161 1.26677 1.25538 1.56328 1.54901 1.25538 1.22161 1.54901 1.50674 0.894057 0.854959 1.22161 1.1667 0.854959 0.802181 1.1667 1.09265 1.22161 1.1667 1.50674 1.43803 1.1667 1.09265 1.43803 1.3454 0.154077 0.14708 0.485242 0.448852 0.14708 0.138667 0.448852 0.406903 0.485242 0.448852 0.802181 0.737594 0.448852 0.406903 0.737594 0.66348 0.138667 0.128918 0.406903 0.360766 0.128918 0.117928 0.360766 0.311931 0.406903 0.360766 0.66348 0.582446 0.360766 0.311931 0.582446 0.497328 0.802181 0.737594 1.09265 1.00215 0.737594 0.66348 1.00215 0.898483 1.09265 1.00215 1.3454 1.23226 1.00215 0.898483 1.23226 1.10279 0.66348 0.582446 0.898483 0.785389 0.582446 0.497328 0.785389 0.666946 0.898483 0.785389 1.10279 0.961709 0.785389 0.666946 0.961709 0.814187 1.56328 1.54901 1.80418 1.78756 1.54901 1.50674 1.78756 1.73834 1.80418 1.78756 1.98 1.96166 1.78756 1.73834 1.96166 1.90732 1.50674 1.43803 1.73834 1.65835 1.43803 1.3454 1.65835 1.55055 1.73834 1.65835 1.90732 1.81902 1.65835 1.55055 1.81902 1.70005 1.98 1.96166 2.08376 2.06437 1.96166 1.90732 2.06437 2.00695 2.08376 2.06437 2.11118 2.09148 2.06437 2.00695 2.09148 2.03312 1.90732 1.81902 2.00695 1.91364 1.81902 1.70005 1.91364 1.78793 2.00695 1.91364 2.03312 1.93829 1.91364 1.78793 1.93829 1.81056 1.3454 1.23226 1.55055 1.41895 1.23226 1.10279 1.41895 1.26841 1.55055 1.41895 1.70005 1.55485 1.41895 1.26841 1.55485 1.38882 1.10279 0.961709 1.26841 1.10451 0.961709 0.814187 1.10451 0.933281 1.26841 1.10451 1.38882 1.20814 1.10451 0.933281 1.20814 1.01951 1.70005 1.55485 1.78793 1.63454 1.55485 1.38882 1.63454 1.4592 1.78793 1.63454 1.81056 1.65471 1.63454 1.4592 1.65471 1.47659 1.38882 1.20814 1.4592 1.26844 1.20814 1.01951 1.26844 1.06938 1.4592 1.26844 1.47659 1.28287 1.26844 1.06938 1.28287 1.08078 0.117928 0.105803 0.311931 0.261959 0.105803 0.0926583 0.261959 0.21242 0.311931 0.261959 0.497328 0.411082 0.261959 0.21242 0.411082 0.326675 0.0926583 0.0786213 0.21242 0.16484 0.0786213 0.0638268 0.16484 0.120642 0.21242 0.16484 0.326675 0.246977 0.16484 0.120642 0.246977 0.17465 0.497328 0.411082 0.666946 0.547396 0.411082 0.326675 0.547396 0.430993 0.666946 0.547396 0.814187 0.665591 0.547396 0.430993 0.665591 0.521301 0.326675 0.246977 0.430993 0.321842 0.246977 0.17465 0.321842 0.223747 0.430993 0.321842 0.521301 0.386505 0.321842 0.223747 0.386505 0.266003 0.0638268 0.0484171 0.120642 0.0810998 0.0484171 0.0325406 0.0810998 0.0472915 0.120642 0.0810998 0.17465 0.112053 0.0810998 0.0472915 0.112053 0.0611571 0.0325406 0.0163497 0.0472915 0.0200627 0.0163497 0 0.0200627 0 0.0472915 0.0200627 0.0611571 0.023473 0.0200627 0 0.023473 0 0.17465 0.112053 0.223747 0.140066 0.112053 0.0611571 0.140066 0.0735905 0.223747 0.140066 0.266003 0.164029 0.140066 0.0735905 0.164029 0.0840909 0.0611571 0.023473 0.0735905 0.0264424 0.023473 0 0.0264424 0 0.0735905 0.0264424 0.0840909 0.0288452 0.0264424 0 0.0288452 0 0.814187 0.665591 0.933281 0.761024 0.665591 0.521301 0.761024 0.594039 0.933281 0.761024 1.01951 0.829897 0.761024 0.594039 0.829897 0.6463 0.521301 0.386505 0.594039 0.438403 0.386505 0.266003 0.438403 0.299731 0.594039 0.438403 0.6463 0.475446 0.438403 0.299731 0.475446 0.323557 1.01951 0.829897 1.06938 0.86941 0.829897 0.6463 0.86941 0.675937 1.06938 0.86941 1.08078 0.877863 0.86941 0.675937 0.877863 0.681654 0.6463 0.475446 0.675937 0.496094 0.475446 0.323557 0.496094 0.33647 0.675937 0.496094 0.681654 0.499418 0.496094 0.33647 0.499418 0.337864 0.266003 0.164029 0.299731 0.182973 0.164029 0.0840909 0.182973 0.0922229 0.299731 0.182973 0.323557 0.19611 0.182973 0.0922229 0.19611 0.097634 0.0840909 0.0288452 0.0922229 0.0305732 0.0288452 0 0.0305732 0 0.0922229 0.0305732 0.097634 0.0315397 0.0305732 0 0.0315397 0 0.323557 0.19611 0.33647 0.202864 0.19611 0.097634 0.202864 0.100068 0.33647 0.202864 0.337864 0.202892 0.202864 0.100068 0.202892 0.0993745 0.097634 0.0315397 0.100068 0.0316834 0.0315397 0 0.0316834 0 0.100068 0.0316834 0.0993745 0.0309708 0.0316834 0 0.0309708 0 2.11118 2.09148 2.0609 2.04162 2.09148 2.03312 2.04162 1.98451 2.0609 2.04162 1.93448 1.91635 2.04162 1.98451 1.91635 1.86265 2.03312 1.93829 1.98451 1.89173 1.93829 1.81056 1.89173 1.76676 1.98451 1.89173 1.86265 1.7754 1.89173 1.76676 1.7754 1.65789 1.93448 1.91635 1.73641 1.72011 1.91635 1.86265 1.72011 1.67183 1.73641 1.72011 1.47386 1.46001 1.72011 1.67183 1.46001 1.41898 1.86265 1.7754 1.67183 1.59341 1.7754 1.65789 1.59341 1.48778 1.67183 1.59341 1.41898 1.35234 1.59341 1.48778 1.35234 1.26258 1.81056 1.65471 1.76676 1.6143 1.65471 1.47659 1.6143 1.44008 1.76676 1.6143 1.65789 1.51454 1.6143 1.44008 1.51454 1.35076 1.47659 1.28287 1.44008 1.25063 1.28287 1.08078 1.25063 1.05305 1.44008 1.25063 1.35076 1.17268 1.25063 1.05305 1.17268 0.987003 1.65789 1.51454 1.48778 1.35894 1.51454 1.35076 1.35894 1.21175 1.48778 1.35894 1.26258 1.15311 1.35894 1.21175 1.15311 1.02805 1.35076 1.17268 1.21175 1.05173 1.17268 0.987003 1.05173 0.884905 1.21175 1.05173 1.02805 0.892104 1.05173 0.884905 0.892104 0.750394 1.47386 1.46001 1.15647 1.14559 1.46001 1.41898 1.14559 1.11337 1.15647 1.14559 0.795958 0.788464 1.14559 1.11337 0.788464 0.76627 1.41898 1.35234 1.11337 1.06103 1.35234 1.26258 1.06103 0.99054 1.11337 1.06103 0.76627 0.730215 1.06103 0.99054 0.730215 0.681663 0.795958 0.788464 0.405651 0.401829 0.788464 0.76627 0.401829 0.390511 0.405651 0.401829 0 0 0.401829 0.390511 0 0 0.76627 0.730215 0.390511 0.372124 0.730215 0.681663 0.372124 0.347363 0.390511 0.372124 0 0 0.372124 0.347363 0 0 1.26258 1.15311 0.99054 0.904567 1.15311 1.02805 0.904567 0.806354 0.99054 0.904567 0.681663 0.622448 0.904567 0.806354 0.622448 0.554806 1.02805 0.892104 0.806354 0.699606 0.892104 0.750394 0.699606 0.588341 0.806354 0.699606 0.554806 0.481288 0.699606 0.588341 0.481288 0.404665 0.681663 0.622448 0.347363 0.317166 0.622448 0.554806 0.317166 0.282672 0.347363 0.317166 0 0 0.317166 0.282672 0 0 0.554806 0.481288 0.282672 0.245183 0.481288 0.404665 0.245183 0.206112 0.282672 0.245183 0 0 0.245183 0.206112 0 0 1.08078 0.877863 1.05305 0.854729 0.877863 0.681654 0.854729 0.663052 1.05305 0.854729 0.987003 0.800673 0.854729 0.663052 0.800673 0.620651 0.681654 0.499418 0.663052 0.485139 0.499418 0.337864 0.485139 0.327562 0.663052 0.485139 0.620651 0.45364 0.485139 0.327562 0.45364 0.305825 0.987003 0.800673 0.884905 0.71753 0.800673 0.620651 0.71753 0.55587 0.884905 0.71753 0.750394 0.608242 0.71753 0.55587 0.608242 0.470975 0.620651 0.45364 0.55587 0.405952 0.45364 0.305825 0.405952 0.273342 0.55587 0.405952 0.470975 0.34372 0.405952 0.273342 0.34372 0.231212 0.337864 0.202892 0.327562 0.196099 0.202892 0.0993745 0.196099 0.0955182 0.327562 0.196099 0.305825 0.182643 0.196099 0.0955182 0.182643 0.0885777 0.0993745 0.0309708 0.0955182 0.0293977 0.0309708 0 0.0293977 0 0.0955182 0.0293977 0.0885777 0.0269901 0.0293977 0 0.0269901 0 0.305825 0.182643 0.273342 0.162931 0.182643 0.0885777 0.162931 0.0787457 0.273342 0.162931 0.231212 0.137605 0.162931 0.0787457 0.137605 0.0663223 0.0885777 0.0269901 0.0787457 0.0238033 0.0269901 0 0.0238033 0 0.0787457 0.0238033 0.0663223 0.0199208 0.0238033 0 0.0199208 0 0.750394 0.608242 0.588341 0.476745 0.608242 0.470975 0.476745 0.369003 0.588341 0.476745 0.404665 0.327822 0.476745 0.369003 0.327822 0.253645 0.470975 0.34372 0.369003 0.269148 0.34372 0.231212 0.269148 0.180899 0.369003 0.269148 0.253645 0.184913 0.269148 0.180899 0.184913 0.124191 0.404665 0.327822 0.206112 0.166933 0.327822 0.253645 0.166933 0.129117 0.206112 0.166933 0 0 0.166933 0.129117 0 0 0.253645 0.184913 0.129117 0.0940825 0.184913 0.124191 0.0940825 0.0631409 0.129117 0.0940825 0 0 0.0940825 0.0631409 0 0 0.231212 0.137605 0.180899 0.107523 0.137605 0.0663223 0.107523 0.0517069 0.180899 0.107523 0.124191 0.0737322 0.107523 0.0517069 0.0737322 0.0353877 0.0663223 0.0199208 0.0517069 0.0154524 0.0199208 0 0.0154524 0 0.0517069 0.0154524 0.0353877 0.0105317 0.0154524 0 0.0105317 0 0.124191 0.0737322 0.0631409 0.0374427 0.0737322 0.0353877 0.0374427 0.0179342 0.0631409 0.0374427 0 0 0.0374427 0.0179342 0 0 0.0353877 0.0105317 0.0179342 0.00531599 0.0105317 0 0.00531599 0 0.0179342 0.00531599 0 0 0.00531599 0 0 0 
SCALARS Uy double 1
LOOKUP_TABLE default
0 0 0 0.00531599 0 0 0.00531599 0.0105317 0 0.00531599 0 0.0179342 0.00531599 0.0105317 0.0179342 0.0353877 0 0 0.0105317 0.0154524 0 0 0.0154524 0.0199208 0.0105317 0.0154524 0.0353877 0.0517069 0.0154524 0.0199208 0.0517069 0.0663223 0 0.0179342 0 0.0374427 0.0179342 0.0353877 0.0374427 0.0737322 0 0.0374427 0 0.0631409 0.0374427 0.0737322 0.0631409 0.124191 0.0353877 0.0517069 0.0737322 0.107523 0.0517069 0.0663223 0.107523 0.137605 0.0737322 0.107523 0.124191 0.180899 0.107523 0.137605 0.180899 0.231212 0 0 0.0199208 0.0238033 0 0 0.0238033 0.0269901 0.0199208 0.0238033 0.0663223 0.0787457 0.0238033 0.0269901 0.0787457 0.0885777 0 0 0.0269901 0.0293977 0 0 0.0293977 0.0309708 0.0269901 0.0293977 0.0885777 0.0955182 0.0293977 0.0309708 0.0955182 0.0993745 0.0663223 0.0787457 0.137605 0.162931 0.0787457 0.0885777 0.162931 0.182643 0.137605 0.162931 0.231212 0.273342 0.162931 0.182643 0.273342 0.305825 0.0885777 0.0955182 0.182643 0.196099 0.0955182 0.0993745 0.196099 0.202892 0.182643 0.196099 0.305825 0.327562 0.196099 0.202892 0.327562 0.337864 0 0.0631409 0 0.0940825 0.0631409 0.124191 0.0940825 0.184913 0 0.0940825 0 0.129117 0.0940825 0.184913 0.129117 0.253645 0.124191 0.180899 0.184913 0.269148 0.180899 0.231212 0.269148 0.34372 0.184913 0.269148 0.253645 0.369003 0.269148 0.34372 0.369003 0.470975 0 0.129117 0 0.166933 0.129117 0.253645 0.166933 0.327822 0 0.166933 0 0.206112 0.166933 0.327822 0.206112 0.404665 0.253645 0.369003 0.327822 0.476745 0.369003 0.470975 0.476745 0.608242 0.327822 0.476745 0.404665 0.588341 0.476745 0.608242 0.588341 0.750394 0.231212 0.273342 0.34372 0.405952 0.273342 0.305825 0.405952 0.45364 0.34372 0.405952 0.470975 0.55587 0.405952 0.45364 0.55587 0.620651 0.305825 0.327562 0.45364 0.485139 0.327562 0.337864 0.485139 0.499418 0.45364 0.485139 0.620651 0.663052 0.485139 0.499418 0.663052 0.681654 0.470975 0.55587 0.608242 0.71753 0.55587 0.620651 0.71753 0.800673 0.608242 0.71753 0.750394 0.884905 0.71753 0.800673 0.884905 0.987003 0.620651 0.663052 0.800673 0.854729 0.663052 0.681654 0.854729 0.877863 0.800673 0.854729 0.987003 1.05305 0.854729 0.877863 1.05305 1.08078 0 0 0.0309708 0.0316834 0 0 0.0316834 0.0315397 0.0309708 0.0316834 0.0993745 0.100068 0.0316834 0.0315397 0.100068 0.097634 0 0 0.0315397 0.0305732 0 0 0.0305732 0.0288452 0.0315397 0.0305732 0.097634 0.0922229 0.0305732 0.0288452 0.0922229 0.0840909 0.0993745 0.100068 0.202892 0.202864 0.100068 0.097634 0.202864 0.19611 0.202892 0.202864 0.337864 0.33647 0.202864 0.19611 0.33647 0.323557 0.097634 0.0922229 0.19611 0.182973 0.0922229 0.0840909 0.182973 0.164029 0.19611 0.182973 0.323557 0.299731 0.182973 0.164029 0.299731 0.266003 0 0 0.0288452 0.0264424 0 0 0.0264424 0.023473 0.0288452 0.0264424 0.0840909 0.0735905 0.0264424 0.023473 0.0735905 0.0611571 0 0 0.023473 0.0200627 0 0 0.0200627 0.0163497 0.023473 0.0200627 0.0611571 0.0472915 0.0200627 0.0163497 0.0472915 0.0325406 0.0840909 0.0735905 0.164029 0.140066 0.0735905 0.0611571 0.140066 0.112053 0.164029 0.140066 0.266003 0.223747 0.140066 0.112053 0.223747 0.17465 0.0611571 0.0472915 0.112053 0.0810998 0.0472915 0.0325406 0.0810998 0.0484171 0.112053 0.0810998 0.17465 0.120642 0.0810998 0.0484171 0.120642 0.0638268 0.337864 0.33647 0.499418 0.496094 0.33647 0.323557 0.496094 0.475446 0.499418 0.496094 0.681654 0.675937 0.496094 0.475446 0.675937 0.6463 0.323557 0.299731 0.475446 0.438403 0.299731 0.266003 0.438403 0.386505 0.475446 0.438403 0.6463 0.594039 0.438403 0.386505 0.594039 0.521301 0.681654 0.675937 0.877863 0.86941 0.675937 0.6463 0.86941 0.829897 0.877863 0.86941 1.08078 1.06938 0.86941 0.829897 1.06938 1.01951 0.6463 0.594039 0.829897 0.761024 0.594039 0.521301 0.761024 0.665591 0.829897 0.761024 1.01951 0.933281 0.761024 0.665591 0.933281 0.814187 0.266003 0.223747 0.386505 0.321842 0.223747 0.17465 0.321842 0.246977 0.386505 0.321842 0.521301 0.430993 0.321842 0.246977 0.430993 0.326675 0.17465 0.120642 0.246977 0.16484 0.120642 0.0638268 0.16484 0.0786213 0.246977 0.16484 0.326675 0.21242 0.16484 0.0786213 0.21242 0.0926583 0.521301 0.430993 0.665591 0.547396 0.430993 0.326675 0.547396 0.411082 0.665591 0.547396 0.814187 0.666946 0.547396 0.411082 0.666946 0.497328 0.326675 0.21242 0.411082 0.261959 0.21242 0.0926583 0.261959 0.105803 0.411082 0.261959 0.497328 0.311931 0.261959 0.105803 0.311931 0.117928 0 0.206112 0 0.245183 0.206112 0.404665 0.245183 0.481288 0 0.245183 0 0.282672 0.245183 0.481288 0.282672 0.554806 0.404665 0.588341 0.481288 0.699606 0.588341 0.750394 0.699606 0.892104 0.481288 0.699606 0.554806 0.806354 0.699606 0.892104 0.806354 1.02805 0 0.282672 0 0.317166 0.282672 0.554806 0.317166 0.622448 0 0.317166 0 0.347363 0.317166 0.622448 0.347363 0.681663 0.554806 0.806354 0.622448 0.904567 0.806354 1.02805 0.904567 1.15311 0.622448 0.904567 0.681663 0.99054 0.904567 1.15311 0.99054 1.26258 0.750394 0.884905 0.892104 1.05173 0.884905 0.987003 1.05173 1.17268 0.892104 1.05173 1.02805 1.21175 1.05173 1.17268 1.21175 1.35076 0.987003 1.05305 1.17268 1.25063 1.05305 1.08078 1.25063 1.28287 1.17268 1.25063 1.35076 1.44008 1.25063 1.28287 1.44008 1.47659 1.02805 1.21175 1.15311 1.35894 1.21175 1.35076 1.35894 1.51454 1.15311 1.35894 1.26258 1.48778 1.35894 1.51454 1.48778 1.65789 1.35076 1.44008 1.51454 1.6143 1.44008 1.47659 1.6143 1.65471 1.51454 1.6143 1.65789 1.76676 1.6143 1.65471 1.76676 1.81056 0 0.347363 0 0.372124 0.347363 0.681663 0.372124 0.730215 0 0.372124 0 0.390511 0.372124 0.730215 0.390511 0.76627 0.681663 0.99054 0.730215 1.06103 0.99054 1.26258 1.06103 1.35234 0.730215 1.06103 0.76627 1.11337 1.06103 1.35234 1.11337 1.41898 0 0.390511 0 0.401829 0.390511 0.76627 0.401829 0.788464 0 0.401829 0 0.405651 0.401829 0.788464 0.405651 0.795958 0.76627 1.11337 0.788464 1.14559 1.11337 1.41898 1.14559 1.46001 0.788464 1.14559 0.795958 1.15647 1.14559 1.46001 1.15647 1.47386 1.26258 1.48778 1.35234 1.59341 1.48778 1.65789 1.59341 1.7754 1.35234 1.59341 1.41898 1.67183 1.59341 1.7754 1.67183 1.86265 1.65789 1.76676 1.7754 1.89173 1.76676 1.81056 1.89173 1.93829 1.7754 1.89173 1.86265 1.98451 1.89173 1.93829 1.98451 2.03312 1.41898 1.67183 1.46001 1.72011 1.67183 1.86265 1.72011 1.91635 1.46001 1.72011 1.47386 1.73641 1.72011 1.91635 1.73641 1.93448 1.86265 1.98451 1.91635 2.04162 1.98451 2.03312 2.04162 2.09148 1.91635 2.04162 1.93448 2.0609 2.04162 2.09148 2.0609 2.11118 1.08078 1.06938 1.28287 1.26844 1.06938 1.01951 1.26844 1.20814 1.28287 1.26844 1.47659 1.4592 1.26844 1.20814 1.4592 1.38882 1.01951 0.933281 1.20814 1.10451 0.933281 0.814187 1.10451 0.961709 1.20814 1.10451 1.38882 1.26841 1.10451 0.961709 1.26841 1.10279 1.47659 1.4592 1.65471 1.63454 1.4592 1.38882 1.63454 1.55485 1.65471 1.63454 1.81056 1.78793 1.63454 1.55485 1.78793 1.70005 1.38882 1.26841 1.55485 1.41895 1.26841 1.10279 1.41895 1.23226 1.55485 1.41895 1.70005 1.55055 1.41895 1.23226 1.55055 1.3454 0.814187 0.666946 0.961709 0.785389 0.666946 0.497328 0.785389 0.582446 0.961709 0.785389 1.10279 0.898483 0.785389 0.582446 0.898483 0.66348 0.497328 0.311931 0.582446 0.360766 0.311931 0.117928 0.360766 0.128918 0.582446 0.360766 0.66348 0.406903 0.360766 0.128918 0.406903 0.138667 1.10279 0.898483 1.23226 1.00215 0.898483 0.66348 1.00215 0.737594 1.23226 1.00215 1.3454 1.09265 1.00215 0.737594 1.09265 0.802181 0.66348 0.406903 0.737594 0.448852 0.406903 0.138667 0.448852 0.14708 0.737594 0.448852 0.802181 0.485242 0.448852 0.14708 0.485242 0.154077 1.81056 1.78793 1.93829 1.91364 1.78793 1.70005 1.91364 1.81902 1.93829 1.91364 2.03312 2.00695 1.91364 1.81902 2.00695 1.90732 1.70005 1.55055 1.81902 1.65835 1.55055 1.3454 1.65835 1.43803 1.81902 1.65835 1.90732 1.73834 1.65835 1.43803 1.73834 1.50674 2.03312 2.00695 2.09148 2.06437 2.00695 1.90732 2.06437 1.96166 2.09148 2.06437 2.11118 2.08376 2.06437 1.96166 2.08376 1.98 1.90732 1.73834 1.96166 1.78756 1.73834 1.50674 1.78756 1.54901 1.96166 1.78756 1.98 1.80418 1.78756 1.54901 1.80418 1.56328 1.3454 1.09265 1.43803 1.1667 1.09265 0.802181 1.1667 0.854959 1.43803 1.1667 1.50674 1.22161 1.1667 0.854959 1.22161 0.894057 0.802181 0.485242 0.854959 0.514878 0.485242 0.154077 0.514878 0.15959 0.854959 0.514878 0.894057 0.536779 0.514878 0.15959 0.536779 0.163566 1.50674 1.22161 1.54901 1.25538 1.22161 0.894057 1.25538 0.918087 1.54901 1.25538 1.56328 1.26677 1.25538 0.918087 1.26677 0.926195 0.894057 0.536779 0.918087 0.550218 0.536779 0.163566 0.550218 0.165967 0.918087 0.550218 0.926195 0.554748 0.550218 0.165967 0.554748 0.16677 0 0 0.0163497 0.0124792 0 0 0.0124792 0.00859798 0.0163497 0.0124792 0.0325406 0.0174763 0.0124792 0.00859798 0.0174763 0.00267353 0 0 0.00859798 0.0048488 0 0 0.0048488 0.00136481 0.00859798 0.0048488 0.00267353 -0.0113117 0.0048488 0.00136481 -0.0113117 -0.0239637 0.0325406 0.0174763 0.0484171 0.0152682 0.0174763 0.00267353 0.0152682 -0.0170792 0.0484171 0.0152682 0.0638268 0.00639698 0.0152682 -0.0170792 0.00639698 -0.0494486 0.00267353 -0.0113117 -0.0170792 -0.0474012 -0.0113117 -0.0239637 -0.0474012 -0.0745651 -0.0170792 -0.0474012 -0.0494486 -0.10159 -0.0474012 -0.0745651 -0.10159 -0.148065 0 0 0.00136481 -0.00173529 0 0 -0.00173529 -0.00435171 0.00136481 -0.00173529 -0.0239637 -0.0348266 -0.00173529 -0.00435171 -0.0348266 -0.0435211 0 0 -0.00435171 -0.00640721 0 0 -0.00640721 -0.00784987 -0.00435171 -0.00640721 -0.0435211 -0.0497596 -0.00640721 -0.00784987 -0.0497596 -0.0533558 -0.0239637 -0.0348266 -0.0745651 -0.0975719 -0.0348266 -0.0435211 -0.0975719 -0.115595 -0.0745651 -0.0975719 -0.148065 -0.187149 -0.0975719 -0.115595 -0.187149 -0.217415 -0.0435211 -0.0497596 -0.115595 -0.12801 -0.0497596 -0.0533558 -0.12801 -0.134419 -0.115595 -0.12801 -0.217415 -0.237789 -0.12801 -0.134419 -0.237789 -0.247596 0.0638268 0.00639698 0.0786213 -0.00835443 0.00639698 -0.0494486 -0.00835443 -0.0927552 0.0786213 -0.00835443 0.0926583 -0.027996 -0.00835443 -0.0927552 -0.027996 -0.144919 -0.0494486 -0.10159 -0.0927552 -0.17137 -0.10159 -0.148065 -0.17137 -0.24123 -0.0927552 -0.17137 -0.144919 -0.253654 -0.17137 -0.24123 -0.253654 -0.350088 0.0926583 -0.027996 0.105803 -0.0513721 -0.027996 -0.144919 -0.0513721 -0.203541 0.105803 -0.0513721 0.117928 -0.0772096 -0.0513721 -0.203541 -0.0772096 -0.266002 -0.144919 -0.253654 -0.203541 -0.3449 -0.253654 -0.350088 -0.3449 -0.470089 -0.203541 -0.3449 -0.266002 -0.441242 -0.3449 -0.470089 -0.441242 -0.596279 -0.148065 -0.187149 -0.24123 -0.299724 -0.187149 -0.217415 -0.299724 -0.344699 -0.24123 -0.299724 -0.350088 -0.4306 -0.299724 -0.344699 -0.4306 -0.492208 -0.217415 -0.237789 -0.344699 -0.374538 -0.237789 -0.247596 -0.374538 -0.388224 -0.344699 -0.374538 -0.492208 -0.532677 -0.374538 -0.388224 -0.532677 -0.550606 -0.350088 -0.4306 -0.470089 -0.574398 -0.4306 -0.492208 -0.574398 -0.653945 -0.470089 -0.574398 -0.596279 -0.725266 -0.574398 -0.653945 -0.725266 -0.823388 -0.492208 -0.532677 -0.653945 -0.705826 -0.532677 -0.550606 -0.705826 -0.728222 -0.653945 -0.705826 -0.823388 -0.887046 -0.705826 -0.728222 -0.887046 -0.91399 0 0 -0.00784987 -0.00865483 0 0 -0.00865483 -0.00882509 -0.00784987 -0.00865483 -0.0533558 -0.0542321 -0.00865483 -0.00882509 -0.0542321 -0.0524222 0 0 -0.00882509 -0.00839124 0 0 -0.00839124 -0.0074103 -0.00882509 -0.00839124 -0.0524222 -0.048069 -0.00839124 -0.0074103 -0.048069 -0.0414201 -0.0533558 -0.0542321 -0.134419 -0.134668 -0.0542321 -0.0524222 -0.134668 -0.128845 -0.134419 -0.134668 -0.247596 -0.246576 -0.134668 -0.128845 -0.246576 -0.234901 -0.0524222 -0.048069 -0.128845 -0.117284 -0.048069 -0.0414201 -0.117284 -0.100549 -0.128845 -0.117284 -0.234901 -0.213164 -0.117284 -0.100549 -0.213164 -0.182358 0 0 -0.0074103 -0.00596394 0 0 -0.00596394 -0.00415674 -0.0074103 -0.00596394 -0.0414201 -0.0328191 -0.00596394 -0.00415674 -0.0328191 -0.0226961 0 0 -0.00415674 -0.00211556 0 0 -0.00211556 0 -0.00415674 -0.00211556 -0.0226961 -0.0115597 -0.00211556 0 -0.0115597 0 -0.0414201 -0.0328191 -0.100549 -0.0794156 -0.0328191 -0.0226961 -0.0794156 -0.0548439 -0.100549 -0.0794156 -0.182358 -0.143841 -0.0794156 -0.0548439 -0.143841 -0.0992868 -0.0226961 -0.0115597 -0.0548439 -0.027954 -0.0115597 0 -0.027954 0 -0.0548439 -0.027954 -0.0992868 -0.0506288 -0.027954 0 -0.0506288 0 -0.247596 -0.246576 -0.388224 -0.385379 -0.246576 -0.234901 -0.385379 -0.366273 -0.388224 -0.385379 -0.550606 -0.545478 -0.385379 -0.366273 -0.545478 -0.517683 -0.234901 -0.213164 -0.366273 -0.331821 -0.213164 -0.182358 -0.331821 -0.283539 -0.366273 -0.331821 -0.517683 -0.468499 -0.331821 -0.283539 -0.468499 -0.400045 -0.550606 -0.545478 -0.728222 -0.720472 -0.545478 -0.517683 -0.720472 -0.683094 -0.728222 -0.720472 -0.91399 -0.903406 -0.720472 -0.683094 -0.903406 -0.855946 -0.517683 -0.468499 -0.683094 -0.617762 -0.468499 -0.400045 -0.617762 -0.527246 -0.683094 -0.617762 -0.855946 -0.773699 -0.617762 -0.527246 -0.773699 -0.660113 -0.182358 -0.143841 -0.283539 -0.223496 -0.143841 -0.0992868 -0.223496 -0.154232 -0.283539 -0.223496 -0.400045 -0.315197 -0.223496 -0.154232 -0.315197 -0.217483 -0.0992868 -0.0506288 -0.154232 -0.0786674 -0.0506288 0 -0.0786674 0 -0.154232 -0.0786674 -0.217483 -0.110947 -0.0786674 0 -0.110947 0 -0.400045 -0.315197 -0.527246 -0.415302 -0.315197 -0.217483 -0.415302 -0.286527 -0.527246 -0.415302 -0.660113 -0.519854 -0.415302 -0.286527 -0.519854 -0.358634 -0.217483 -0.110947 -0.286527 -0.146183 -0.110947 0 -0.146183 0 -0.286527 -0.146183 -0.358634 -0.182984 -0.146183 0 -0.182984 0 0.117928 -0.0772096 0.128918 -0.10417 -0.0772096 -0.266002 -0.10417 -0.329562 0.128918 -0.10417 0.138667 -0.130905 -0.10417 -0.329562 -0.130905 -0.391474 -0.266002 -0.441242 -0.329562 -0.538652 -0.441242 -0.596279 -0.538652 -0.723493 -0.329562 -0.538652 -0.391474 -0.633087 -0.538652 -0.723493 -0.633087 -0.846557 0.138667 -0.130905 0.14708 -0.156108 -0.130905 -0.391474 -0.156108 -0.449085 0.14708 -0.156108 0.154077 -0.178572 -0.156108 -0.449085 -0.178572 -0.499947 -0.391474 -0.633087 -0.449085 -0.720656 -0.633087 -0.846557 -0.720656 -0.960489 -0.449085 -0.720656 -0.499947 -0.797765 -0.720656 -0.960489 -0.797765 -1.06069 -0.596279 -0.725266 -0.723493 -0.877107 -0.725266 -0.823388 -0.877107 -0.993746 -0.723493 -0.877107 -0.846557 -1.02381 -0.877107 -0.993746 -1.02381 -1.15822 -0.823388 -0.887046 -0.993746 -1.06911 -0.887046 -0.91399 -1.06911 -1.10053 -0.993746 -1.06911 -1.15822 -1.2448 -1.06911 -1.10053 -1.2448 -1.28047 -0.846557 -1.02381 -0.960489 -1.15951 -1.02381 -1.15822 -1.15951 -1.31025 -0.960489 -1.15951 -1.06069 -1.27877 -1.15951 -1.31025 -1.27877 -1.44382 -1.15822 -1.2448 -1.31025 -1.40713 -1.2448 -1.28047 -1.40713 -1.44668 -1.31025 -1.40713 -1.44382 -1.54971 -1.40713 -1.44668 -1.54971 -1.59263 0.154077 -0.178572 0.15959 -0.197235 -0.178572 -0.499947 -0.197235 -0.54191 0.15959 -0.197235 0.163566 -0.211221 -0.197235 -0.54191 -0.211221 -0.573209 -0.499947 -0.797765 -0.54191 -0.861262 -0.797765 -1.06069 -0.861262 -1.14313 -0.54191 -0.861262 -0.573209 -0.908559 -0.861262 -1.14313 -0.908559 -1.2045 0.163566 -0.211221 0.165967 -0.219881 -0.211221 -0.573209 -0.219881 -0.592529 0.165967 -0.219881 0.16677 -0.222814 -0.219881 -0.592529 -0.222814 -0.599061 -0.573209 -0.908559 -0.592529 -0.937729 -0.908559 -1.2045 -0.937729 -1.24234 -0.592529 -0.937729 -0.599061 -0.947588 -0.937729 -1.24234 -0.947588 -1.25512 -1.06069 -1.27877 -1.14313 -1.37685 -1.27877 -1.44382 -1.37685 -1.55362 -1.14313 -1.37685 -1.2045 -1.44983 -1.37685 -1.55362 -1.44983 -1.6353 -1.44382 -1.54971 -1.55362 -1.66688 -1.54971 -1.59263 -1.66688 -1.71257 -1.55362 -1.66688 -1.6353 -1.75405 -1.66688 -1.71257 -1.75405 -1.80177 -1.2045 -1.44983 -1.24234 -1.49481 -1.44983 -1.6353 -1.49481 -1.68564 -1.24234 -1.49481 -1.25512 -1.51 -1.49481 -1.68564 -1.51 -1.70265 -1.6353 -1.75405 -1.68564 -1.80776 -1.75405 -1.80177 -1.80776 -1.85673 -1.68564 -1.80776 -1.70265 -1.8259 -1.80776 -1.85673 -1.8259 -1.8753 -0.91399 -0.903406 -1.10053 -1.08704 -0.903406 -0.855946 -1.08704 -1.02941 -1.10053 -1.08704 -1.28047 -1.26411 -1.08704 -1.02941 -1.26411 -1.19665 -0.855946 -0.773699 -1.02941 -0.930158 -0.773699 -0.660113 -0.930158 -0.793406 -1.02941 -0.930158 -1.19665 -1.08098 -0.930158 -0.793406 -1.08098 -0.921884 -1.28047 -1.26411 -1.44668 -1.42765 -1.26411 -1.19665 -1.42765 -1.35108 -1.44668 -1.42765 -1.59263 -1.57123 -1.42765 -1.35108 -1.57123 -1.48665 -1.19665 -1.08098 -1.35108 -1.22024 -1.08098 -0.921884 -1.22024 -1.04051 -1.35108 -1.22024 -1.48665 -1.34248 -1.22024 -1.04051 -1.34248 -1.14462 -0.660113 -0.519854 -0.793406 -0.624734 -0.519854 -0.358634 -0.624734 -0.430965 -0.793406 -0.624734 -0.921884 -0.725818 -0.624734 -0.430965 -0.725818 -0.500675 -0.358634 -0.182984 -0.430965 -0.219897 -0.182984 0 -0.219897 0 -0.430965 -0.219897 -0.500675 -0.255473 -0.219897 0 -0.255473 0 -0.921884 -0.725818 -1.04051 -0.819143 -0.725818 -0.500675 -0.819143 -0.565032 -1.04051 -0.819143 -1.14462 -0.90105 -0.819143 -0.565032 -0.90105 -0.621515 -0.500675 -0.255473 -0.565032 -0.288316 -0.255473 0 -0.288316 0 -0.565032 -0.288316 -0.621515 -0.317141 -0.288316 0 -0.317141 0 -1.59263 -1.57123 -1.71257 -1.68921 -1.57123 -1.48665 -1.68921 -1.59803 -1.71257 -1.68921 -1.80177 -1.77694 -1.68921 -1.59803 -1.77694 -1.68086 -1.48665 -1.34248 -1.59803 -1.4429 -1.34248 -1.14462 -1.4429 -1.23015 -1.59803 -1.4429 -1.68086 -1.51758 -1.4429 -1.23015 -1.51758 -1.29375 -1.80177 -1.77694 -1.85673 -1.831 -1.77694 -1.68086 -1.831 -1.7319 -1.85673 -1.831 -1.8753 -1.84926 -1.831 -1.7319 -1.84926 -1.74914 -1.68086 -1.51758 -1.7319 -1.56359 -1.51758 -1.29375 -1.56359 -1.33294 -1.7319 -1.56359 -1.74914 -1.57913 -1.56359 -1.33294 -1.57913 -1.34617 -1.14462 -0.90105 -1.23015 -0.968337 -0.90105 -0.621515 -0.968337 -0.667914 -1.23015 -0.968337 -1.29375 -1.01837 -0.968337 -0.667914 -1.01837 -0.702416 -0.621515 -0.317141 -0.667914 -0.340819 -0.317141 0 -0.340819 0 -0.667914 -0.340819 -0.702416 -0.358426 -0.340819 0 -0.358426 0 -1.29375 -1.01837 -1.33294 -1.0492 -1.01837 -0.702416 -1.0492 -0.723672 -1.33294 -1.0492 -1.34617 -1.05961 -1.0492 -0.723672 -1.05961 -0.730853 -0.702416 -0.358426 -0.723672 -0.369273 -0.358426 0 -0.369273 0 -0.723672 -0.369273 -0.730853 -0.372938 -0.369273 0 -0.372938 0 0 0.405651 0 0.401833 0.405651 0.795958 0.401833 0.78847 0 0.401833 0 0.390517 0.401833 0.78847 0.390517 0.766282 0.795958 1.15647 0.78847 1.1456 1.15647 1.47386 1.1456 1.46002 0.78847 1.1456 0.766282 1.11339 1.1456 1.46002 1.11339 1.419 0 0.390517 0 0.372134 0.390517 0.766282 0.372134 0.730233 0 0.372134 0 0.347376 0.372134 0.730233 0.347376 0.681686 0.766282 1.11339 0.730233 1.06105 1.11339 1.419 1.06105 1.35236 0.730233 1.06105 0.681686 0.990569 1.06105 1.35236 0.990569 1.26262 1.47386 1.73641 1.46002 1.72012 1.73641 1.93448 1.72012 1.91636 1.46002 1.72012 1.419 1.67185 1.72012 1.91636 1.67185 1.86267 1.93448 2.0609 1.91636 2.04163 2.0609 2.11118 2.04163 2.09149 1.91636 2.04163 1.86267 1.98453 2.04163 2.09149 1.98453 2.03313 1.419 1.67185 1.35236 1.59343 1.67185 1.86267 1.59343 1.77543 1.35236 1.59343 1.26262 1.48782 1.59343 1.77543 1.48782 1.65792 1.86267 1.98453 1.77543 1.89175 1.98453 2.03313 1.89175 1.93832 1.77543 1.89175 1.65792 1.76679 1.89175 1.93832 1.76679 1.81059 0 0.347376 0 0.317182 0.347376 0.681686 0.317182 0.622475 0 0.317182 0 0.282689 0.317182 0.622475 0.282689 0.554836 0.681686 0.990569 0.622475 0.904602 0.990569 1.26262 0.904602 1.15315 0.622475 0.904602 0.554836 0.806394 0.904602 1.15315 0.806394 1.02809 0 0.282689 0 0.245202 0.282689 0.554836 0.245202 0.481321 0 0.245202 0 0.206133 0.245202 0.481321 0.206133 0.404701 0.554836 0.806394 0.481321 0.699649 0.806394 1.02809 0.699649 0.892153 0.481321 0.699649 0.404701 0.588387 0.699649 0.892153 0.588387 0.750445 1.26262 1.48782 1.15315 1.35899 1.48782 1.65792 1.35899 1.51459 1.15315 1.35899 1.02809 1.2118 1.35899 1.51459 1.2118 1.3508 1.65792 1.76679 1.51459 1.61434 1.76679 1.81059 1.61434 1.65475 1.51459 1.61434 1.3508 1.44012 1.61434 1.65475 1.44012 1.47664 1.02809 1.2118 0.892153 1.05178 1.2118 1.3508 1.05178 1.17273 0.892153 1.05178 0.750445 0.884959 1.05178 1.17273 0.884959 0.987057 1.3508 1.44012 1.17273 1.25068 1.44012 1.47664 1.25068 1.28292 1.17273 1.25068 0.987057 1.0531 1.25068 1.28292 1.0531 1.08083 2.11118 2.08376 2.09149 2.06438 2.08376 1.98 2.06438 1.96167 2.09149 2.06438 2.03313 2.00696 2.06438 1.96167 2.00696 1.90734 1.98 1.80418 1.96167 1.78757 1.80418 1.56328 1.78757 1.54902 1.96167 1.78757 1.90734 1.73836 1.78757 1.54902 1.73836 1.50675 2.03313 2.00696 1.93832 1.91366 2.00696 1.90734 1.91366 1.81904 1.93832 1.91366 1.81059 1.78797 1.91366 1.81904 1.78797 1.70008 1.90734 1.73836 1.81904 1.65837 1.73836 1.50675 1.65837 1.43804 1.81904 1.65837 1.70008 1.55058 1.65837 1.43804 1.55058 1.34542 1.56328 1.26677 1.54902 1.25538 1.26677 0.926195 1.25538 0.91809 1.54902 1.25538 1.50675 1.22162 1.25538 0.91809 1.22162 0.894063 0.926195 0.554748 0.91809 0.550219 0.554748 0.16677 0.550219 0.165967 0.91809 0.550219 0.894063 0.536781 0.550219 0.165967 0.536781 0.163566 1.50675 1.22162 1.43804 1.16671 1.22162 0.894063 1.16671 0.854967 1.43804 1.16671 1.34542 1.09267 1.16671 0.854967 1.09267 0.802191 0.894063 0.536781 0.854967 0.514881 0.536781 0.163566 0.514881 0.15959 0.854967 0.514881 0.802191 0.485247 0.514881 0.15959 0.485247 0.154077 1.81059 1.78797 1.65475 1.63458 1.78797 1.70008 1.63458 1.55489 1.65475 1.63458 1.47664 1.45924 1.63458 1.55489 1.45924 1.38886 1.70008 1.55058 1.55489 1.41898 1.55058 1.34542 1.41898 1.23229 1.55489 1.41898 1.38886 1.26844 1.41898 1.23229 1.26844 1.10281 1.47664 1.45924 1.28292 1.26849 1.45924 1.38886 1.26849 1.20818 1.28292 1.26849 1.08083 1.06943 1.26849 1.20818 1.06943 1.01955 1.38886 1.26844 1.20818 1.10454 1.26844 1.10281 1.10454 0.961736 1.20818 1.10454 1.01955 0.933315 1.10454 0.961736 0.933315 0.814215 1.34542 1.09267 1.23229 1.00217 1.09267 0.802191 1.00217 0.737606 1.23229 1.00217 1.10281 0.898502 1.00217 0.737606 0.898502 0.663493 0.802191 0.485247 0.737606 0.448858 0.485247 0.154077 0.448858 0.14708 0.737606 0.448858 0.663493 0.40691 0.448858 0.14708 0.40691 0.138667 1.10281 0.898502 0.961736 0.78541 0.898502 0.663493 0.78541 0.58246 0.961736 0.78541 0.814215 0.666968 0.78541 0.58246 0.666968 0.497342 0.663493 0.40691 0.58246 0.360773 0.40691 0.138667 0.360773 0.128918 0.58246 0.360773 0.497342 0.311939 0.360773 0.128918 0.311939 0.117928 0 0.206133 0 0.166954 0.206133 0.404701 0.166954 0.327858 0 0.166954 0 0.129137 0.166954 0.327858 0.129137 0.253681 0.404701 0.588387 0.327858 0.47679 0.588387 0.750445 0.47679 0.608294 0.327858 0.47679 0.253681 0.369048 0.47679 0.608294 0.369048 0.471025 0 0.129137 0 0.0941024 0.129137 0.253681 0.0941024 0.184946 0 0.0941024 0 0.0631591 0.0941024 0.184946 0.0631591 0.124221 0.253681 0.369048 0.184946 0.269189 0.369048 0.471025 0.269189 0.343767 0.184946 0.269189 0.124221 0.180936 0.269189 0.343767 0.180936 0.231252 0.750445 0.884959 0.608294 0.717584 0.884959 0.987057 0.717584 0.800727 0.608294 0.717584 0.471025 0.555922 0.717584 0.800727 0.555922 0.620704 0.987057 1.0531 0.800727 0.854782 1.0531 1.08083 0.854782 0.877913 0.800727 0.854782 0.620704 0.663103 0.854782 0.877913 0.663103 0.681701 0.471025 0.555922 0.343767 0.406 0.555922 0.620704 0.406 0.453688 0.343767 0.406 0.231252 0.273385 0.406 0.453688 0.273385 0.305867 0.620704 0.663103 0.453688 0.485186 0.663103 0.681701 0.485186 0.499461 0.453688 0.485186 0.305867 0.327602 0.485186 0.499461 0.327602 0.337901 0 0.0631591 0 0.0374585 0.0631591 0.124221 0.0374585 0.0737577 0 0.0374585 0 0.0179468 0.0374585 0.0737577 0.0179468 0.0354067 0.124221 0.180936 0.0737577 0.107554 0.180936 0.231252 0.107554 0.137638 0.0737577 0.107554 0.0354067 0.051729 0.107554 0.137638 0.051729 0.0663457 0 0.0179468 0 0.00532407 0.0179468 0.0354067 0.00532407 0.0105421 0 0.00532407 0 0 0.00532407 0.0105421 0 0 0.0354067 0.051729 0.0105421 0.015464 0.051729 0.0663457 0.015464 0.0199329 0.0105421 0.015464 0 0 0.015464 0.0199329 0 0 0.231252 0.273385 0.137638 0.162965 0.273385 0.305867 0.162965 0.182677 0.137638 0.162965 0.0663457 0.0787694 0.162965 0.182677 0.0787694 0.0886009 0.305867 0.327602 0.182677 0.196131 0.327602 0.337901 0.196131 0.202922 0.182677 0.196131 0.0886009 0.0955402 0.196131 0.202922 0.0955402 0.0993949 0.0663457 0.0787694 0.0199329 0.0238154 0.0787694 0.0886009 0.0238154 0.0270019 0.0199329 0.0238154 0 0 0.0238154 0.0270019 0 0 0.0886009 0.0955402 0.0270019 0.0294089 0.0955402 0.0993949 0.0294089 0.0309812 0.0270019 0.0294089 0 0 0.0294089 0.0309812 0 0 1.08083 1.06943 0.877913 0.869455 1.06943 1.01955 0.869455 0.829937 0.877913 0.869455 0.681701 0.67598 0.869455 0.829937 0.67598 0.646338 1.01955 0.933315 0.829937 0.761058 0.933315 0.814215 0.761058 0.665619 0.829937 0.761058 0.646338 0.594072 0.761058 0.665619 0.594072 0.521328 0.681701 0.67598 0.499461 0.496133 0.67598 0.646338 0.496133 0.475481 0.499461 0.496133 0.337901 0.336504 0.496133 0.475481 0.336504 0.323587 0.646338 0.594072 0.475481 0.438433 0.594072 0.521328 0.438433 0.386529 0.475481 0.438433 0.323587 0.299757 0.438433 0.386529 0.299757 0.266024 0.814215 0.666968 0.665619 0.547417 0.666968 0.497342 0.547417 0.411096 0.665619 0.547417 0.521328 0.431013 0.547417 0.411096 0.431013 0.326689 0.497342 0.311939 0.411096 0.261966 0.311939 0.117928 0.261966 0.105803 0.411096 0.261966 0.326689 0.212427 0.261966 0.105803 0.212427 0.0926583 0.521328 0.431013 0.386529 0.321861 0.431013 0.326689 0.321861 0.246989 0.386529 0.321861 0.266024 0.223763 0.321861 0.246989 0.223763 0.17466 0.326689 0.212427 0.246989 0.164846 0.212427 0.0926583 0.164846 0.0786213 0.246989 0.164846 0.17466 0.120647 0.164846 0.0786213 0.120647 0.0638268 0.337901 0.336504 0.202922 0.202891 0.336504 0.323587 0.202891 0.196134 0.202922 0.202891 0.0993949 0.100086 0.202891 0.196134 0.100086 0.0976503 0.323587 0.299757 0.196134 0.182993 0.299757 0.266024 0.182993 0.164045 0.196134 0.182993 0.0976503 0.0922369 0.182993 0.164045 0.0922369 0.0841022 0.0993949 0.100086 0.0309812 0.0316929 0.100086 0.0976503 0.0316929 0.031548 0.0309812 0.0316929 0 0 0.0316929 0.031548 0 0 0.0976503 0.0922369 0.031548 0.0305803 0.0922369 0.0841022 0.0305803 0.028851 0.031548 0.0305803 0 0 0.0305803 0.028851 0 0 0.266024 0.223763 0.164045 0.140079 0.223763 0.17466 0.140079 0.112061 0.164045 0.140079 0.0841022 0.0735991 0.140079 0.112061 0.0735991 0.0611629 0.17466 0.120647 0.112061 0.0811041 0.120647 0.0638268 0.0811041 0.0484171 0.112061 0.0811041 0.0611629 0.0472944 0.0811041 0.0484171 0.0472944 0.0325406 0.0841022 0.0735991 0.028851 0.0264468 0.0735991 0.0611629 0.0264468 0.0234759 0.028851 0.0264468 0 0 0.0264468 0.0234759 0 0 0.0611629 0.0472944 0.0234759 0.0200642 0.0472944 0.0325406 0.0200642 0.0163497 0.0234759 0.0200642 0 0 0.0200642 0.0163497 0 0 0.16677 -0.222814 0.165967 -0.219883 -0.222814 -0.599061 -0.219883 -0.592532 0.165967 -0.219883 0.163566 -0.211224 -0.219883 -0.592532 -0.211224 -0.573214 -0.599061 -0.947588 -0.592532 -0.937733 -0.947588 -1.25512 -0.937733 -1.24234 -0.592532 -0.937733 -0.573214 -0.908567 -0.937733 -1.24234 -0.908567 -1.20451 0.163566 -0.211224 0.15959 -0.197239 -0.211224 -0.573214 -0.197239 -0.541918 0.15959 -0.197239 0.154077 -0.178577 -0.197239 -0.541918 -0.178577 -0.499956 -0.573214 -0.908567 -0.541918 -0.861274 -0.908567 -1.20451 -0.861274 -1.14315 -0.541918 -0.861274 -0.499956 -0.797779 -0.861274 -1.14315 -0.797779 -1.06071 -1.25512 -1.51 -1.24234 -1.49481 -1.51 -1.70265 -1.49481 -1.68565 -1.24234 -1.49481 -1.20451 -1.44984 -1.49481 -1.68565 -1.44984 -1.63532 -1.70265 -1.8259 -1.68565 -1.80777 -1.8259 -1.8753 -1.80777 -1.85674 -1.68565 -1.80777 -1.63532 -1.75406 -1.80777 -1.85674 -1.75406 -1.80179 -1.20451 -1.44984 -1.14315 -1.37686 -1.44984 -1.63532 -1.37686 -1.55364 -1.14315 -1.37686 -1.06071 -1.2788 -1.37686 -1.55364 -1.2788 -1.44384 -1.63532 -1.75406 -1.55364 -1.66691 -1.75406 -1.80179 -1.66691 -1.71259 -1.55364 -1.66691 -1.44384 -1.54974 -1.66691 -1.71259 -1.54974 -1.59266 0.154077 -0.178577 0.14708 -0.156114 -0.178577 -0.499956 -0.156114 -0.449096 0.14708 -0.156114 0.138667 -0.130911 -0.156114 -0.449096 -0.130911 -0.391487 -0.499956 -0.797779 -0.449096 -0.720673 -0.797779 -1.06071 -0.720673 -0.960512 -0.449096 -0.720673 -0.391487 -0.633106 -0.720673 -0.960512 -0.633106 -0.846582 0.138667 -0.130911 0.128918 -0.104177 -0.130911 -0.391487 -0.104177 -0.329576 0.128918 -0.104177 0.117928 -0.0772169 -0.104177 -0.329576 -0.0772169 -0.266016 -0.391487 -0.633106 -0.329576 -0.538672 -0.633106 -0.846582 -0.538672 -0.72352 -0.329576 -0.538672 -0.266016 -0.441264 -0.538672 -0.72352 -0.441264 -0.596307 -1.06071 -1.2788 -0.960512 -1.15954 -1.2788 -1.44384 -1.15954 -1.31028 -0.960512 -1.15954 -0.846582 -1.02385 -1.15954 -1.31028 -1.02385 -1.15825 -1.44384 -1.54974 -1.31028 -1.40717 -1.54974 -1.59266 -1.40717 -1.44672 -1.31028 -1.40717 -1.15825 -1.24484 -1.40717 -1.44672 -1.24484 -1.28051 -0.846582 -1.02385 -0.72352 -0.87714 -1.02385 -1.15825 -0.87714 -0.993785 -0.72352 -0.87714 -0.596307 -0.7253 -0.87714 -0.993785 -0.7253 -0.823429 -1.15825 -1.24484 -0.993785 -1.06916 -1.24484 -1.28051 -1.06916 -1.10058 -0.993785 -1.06916 -0.823429 -0.887092 -1.06916 -1.10058 -0.887092 -0.91404 -1.8753 -1.84926 -1.85674 -1.83101 -1.84926 -1.74914 -1.83101 -1.73191 -1.85674 -1.83101 -1.80179 -1.77696 -1.83101 -1.73191 -1.77696 -1.68088 -1.74914 -1.57913 -1.73191 -1.5636 -1.57913 -1.34617 -1.5636 -1.33295 -1.73191 -1.5636 -1.68088 -1.5176 -1.5636 -1.33295 -1.5176 -1.29377 -1.80179 -1.77696 -1.71259 -1.68923 -1.77696 -1.68088 -1.68923 -1.59806 -1.71259 -1.68923 -1.59266 -1.57127 -1.68923 -1.59806 -1.57127 -1.48669 -1.68088 -1.5176 -1.59806 -1.44293 -1.5176 -1.29377 -1.44293 -1.23018 -1.59806 -1.44293 -1.48669 -1.34252 -1.44293 -1.23018 -1.34252 -1.14465 -1.34617 -1.05961 -1.33295 -1.0492 -1.05961 -0.730853 -1.0492 -0.723678 -1.33295 -1.0492 -1.29377 -1.01839 -1.0492 -0.723678 -1.01839 -0.702428 -0.730853 -0.372938 -0.723678 -0.369277 -0.372938 0 -0.369277 0 -0.723678 -0.369277 -0.702428 -0.358433 -0.369277 0 -0.358433 0 -1.29377 -1.01839 -1.23018 -0.968359 -1.01839 -0.702428 -0.968359 -0.667932 -1.23018 -0.968359 -1.14465 -0.90108 -0.968359 -0.667932 -0.90108 -0.621538 -0.702428 -0.358433 -0.667932 -0.340829 -0.358433 0 -0.340829 0 -0.667932 -0.340829 -0.621538 -0.317154 -0.340829 0 -0.317154 0 -1.59266 -1.57127 -1.44672 -1.4277 -1.57127 -1.48669 -1.4277 -1.35113 -1.44672 -1.4277 -1.28051 -1.26416 -1.4277 -1.35113 -1.26416 -1.1967 -1.48669 -1.34252 -1.35113 -1.22028 -1.34252 -1.14465 -1.22028 -1.04055 -1.35113 -1.22028 -1.1967 -1.08103 -1.22028 -1.04055 -1.08103 -0.921929 -1.28051 -1.26416 -1.10058 -1.08709 -1.26416 -1.1967 -1.08709 -1.02946 -1.10058 -1.08709 -0.91404 -0.903459 -1.08709 -1.02946 -0.903459 -0.856 -1.1967 -1.08103 -1.02946 -0.93021 -1.08103 -0.921929 -0.93021 -0.793455 -1.02946 -0.93021 -0.856 -0.773753 -0.93021 -0.793455 -0.773753 -0.660164 -1.14465 -0.90108 -1.04055 -0.819177 -0.90108 -0.621538 -0.819177 -0.56506 -1.04055 -0.819177 -0.921929 -0.725858 -0.819177 -0.56506 -0.725858 -0.500706 -0.621538 -0.317154 -0.56506 -0.288332 -0.317154 0 -0.288332 0 -0.56506 -0.288332 -0.500706 -0.255491 -0.288332 0 -0.255491 0 -0.921929 -0.725858 -0.793455 -0.624777 -0.725858 -0.500706 -0.624777 -0.430998 -0.793455 -0.624777 -0.660164 -0.519899 -0.624777 -0.430998 -0.519899 -0.35867 -0.500706 -0.255491 -0.430998 -0.219917 -0.255491 0 -0.219917 0 -0.430998 -0.219917 -0.35867 -0.183004 -0.219917 0 -0.183004 0 0.117928 -0.0772169 0.105803 -0.0513793 -0.0772169 -0.266016 -0.0513793 -0.203555 0.105803 -0.0513793 0.0926583 -0.0280028 -0.0513793 -0.203555 -0.0280028 -0.144932 -0.266016 -0.441264 -0.203555 -0.344921 -0.441264 -0.596307 -0.344921 -0.470117 -0.203555 -0.344921 -0.144932 -0.253675 -0.344921 -0.470117 -0.253675 -0.350114 0.0926583 -0.0280028 0.0786213 -0.00836066 -0.0280028 -0.144932 -0.00836066 -0.0927676 0.0786213 -0.00836066 0.0638268 0.00639164 -0.00836066 -0.0927676 0.00639164 -0.0494593 -0.144932 -0.253675 -0.0927676 -0.171388 -0.253675 -0.350114 -0.171388 -0.241254 -0.0927676 -0.171388 -0.0494593 -0.101605 -0.171388 -0.241254 -0.101605 -0.148086 -0.596307 -0.7253 -0.470117 -0.574432 -0.7253 -0.823429 -0.574432 -0.653985 -0.470117 -0.574432 -0.350114 -0.430633 -0.574432 -0.653985 -0.430633 -0.492247 -0.823429 -0.887092 -0.653985 -0.705871 -0.887092 -0.91404 -0.705871 -0.728272 -0.653985 -0.705871 -0.492247 -0.532721 -0.705871 -0.728272 -0.532721 -0.550653 -0.350114 -0.430633 -0.241254 -0.299754 -0.430633 -0.492247 -0.299754 -0.344734 -0.241254 -0.299754 -0.148086 -0.187175 -0.299754 -0.344734 -0.187175 -0.217444 -0.492247 -0.532721 -0.344734 -0.374578 -0.532721 -0.550653 -0.374578 -0.388268 -0.344734 -0.374578 -0.217444 -0.237823 -0.374578 -0.388268 -0.237823 -0.247633 0.0638268 0.00639164 0.0484171 0.015264 0.00639164 -0.0494593 0.015264 -0.0170876 0.0484171 0.015264 0.0325406 0.0174734 0.015264 -0.0170876 0.0174734 0.00266773 -0.0494593 -0.101605 -0.0170876 -0.0474137 -0.101605 -0.148086 -0.0474137 -0.0745815 -0.0170876 -0.0474137 0.00266773 -0.0113203 -0.0474137 -0.0745815 -0.0113203 -0.0239751 0.0325406 0.0174734 0.0163497 0.0124777 0.0174734 0.00266773 0.0124777 0.00859503 0.0163497 0.0124777 0 0 0.0124777 0.00859503 0 0 0.00266773 -0.0113203 0.00859503 0.00484442 -0.0113203 -0.0239751 0.00484442 0.00135904 0.00859503 0.00484442 0 0 0.00484442 0.00135904 0 0 -0.148086 -0.187175 -0.0745815 -0.0975921 -0.187175 -0.217444 -0.0975921 -0.115618 -0.0745815 -0.0975921 -0.0239751 -0.0348405 -0.0975921 -0.115618 -0.0348405 -0.0435375 -0.217444 -0.237823 -0.115618 -0.128036 -0.237823 -0.247633 -0.128036 -0.134449 -0.115618 -0.128036 -0.0435375 -0.0497781 -0.128036 -0.134449 -0.0497781 -0.0533762 -0.0239751 -0.0348405 0.00135904 -0.00174237 -0.0348405 -0.0435375 -0.00174237 -0.00436001 0.00135904 -0.00174237 0 0 -0.00174237 -0.00436001 0 0 -0.0435375 -0.0497781 -0.00436001 -0.00641662 -0.0497781 -0.0533762 -0.00641662 -0.00786025 -0.00436001 -0.00641662 0 0 -0.00641662 -0.00786025 0 0 -0.91404 -0.903459 -0.728272 -0.720525 -0.903459 -0.856 -0.720525 -0.683148 -0.728272 -0.720525 -0.550653 -0.545528 -0.720525 -0.683148 -0.545528 -0.517735 -0.856 -0.773753 -0.683148 -0.617816 -0.773753 -0.660164 -0.617816 -0.527298 -0.683148 -0.617816 -0.517735 -0.468552 -0.617816 -0.527298 -0.468552 -0.400095 -0.550653 -0.545528 -0.388268 -0.385425 -0.545528 -0.517735 -0.385425 -0.366321 -0.388268 -0.385425 -0.247633 -0.246616 -0.385425 -0.366321 -0.246616 -0.234943 -0.517735 -0.468552 -0.366321 -0.331869 -0.468552 -0.400095 -0.331869 -0.283586 -0.366321 -0.331869 -0.234943 -0.213206 -0.331869 -0.283586 -0.213206 -0.182399 -0.660164 -0.519899 -0.527298 -0.415348 -0.519899 -0.35867 -0.415348 -0.286563 -0.527298 -0.415348 -0.400095 -0.315242 -0.415348 -0.286563 -0.315242 -0.217518 -0.35867 -0.183004 -0.286563 -0.146205 -0.183004 0 -0.146205 0 -0.286563 -0.146205 -0.217518 -0.110968 -0.146205 0 -0.110968 0 -0.400095 -0.315242 -0.283586 -0.223538 -0.315242 -0.217518 -0.223538 -0.154265 -0.283586 -0.223538 -0.182399 -0.143879 -0.223538 -0.154265 -0.143879 -0.0993169 -0.217518 -0.110968 -0.154265 -0.0786873 -0.110968 0 -0.0786873 0 -0.154265 -0.0786873 -0.0993169 -0.0506471 -0.0786873 0 -0.0506471 0 -0.247633 -0.246616 -0.134449 -0.134699 -0.246616 -0.234943 -0.134699 -0.128878 -0.134449 -0.134699 -0.0533762 -0.0542541 -0.134699 -0.128878 -0.0542541 -0.0524453 -0.234943 -0.213206 -0.128878 -0.117318 -0.213206 -0.182399 -0.117318 -0.100582 -0.128878 -0.117318 -0.0524453 -0.0480926 -0.117318 -0.100582 -0.0480926 -0.0414435 -0.0533762 -0.0542541 -0.00786025 -0.00866601 -0.0542541 -0.0524453 -0.00866601 -0.00883686 -0.00786025 -0.00866601 0 0 -0.00866601 -0.00883686 0 0 -0.0524453 -0.0480926 -0.00883686 -0.00840334 -0.0480926 -0.0414435 -0.00840334 -0.00742239 -0.00883686 -0.00840334 0 0 -0.00840334 -0.00742239 0 0 -0.182399 -0.143879 -0.100582 -0.0794463 -0.143879 -0.0993169 -0.0794463 -0.0548693 -0.100582 -0.0794463 -0.0414435 -0.0328412 -0.0794463 -0.0548693 -0.0328412 -0.0227151 -0.0993169 -0.0506471 -0.0548693 -0.0279699 -0.0506471 0 -0.0279699 0 -0.0548693 -0.0279699 -0.0227151 -0.0115724 -0.0279699 0 -0.0115724 0 -0.0414435 -0.0328412 -0.00742239 -0.00597556 -0.0328412 -0.0227151 -0.00597556 -0.00416714 -0.00742239 -0.00597556 0 0 -0.00597556 -0.00416714 0 0 -0.0227151 -0.0115724 -0.00416714 -0.00212364 -0.0115724 0 -0.00212364 0 -0.00416714 -0.00212364 0 0 -0.00212364 0 0 0 
SCALARS Stress double 1
LOOKUP_TABLE default
0 1.46651 0.632151 0.941057 1.46651 2.94604 1.3135 0.993393 0.632151 2.93038 1.40519 2.52188 1.3261 4.47032 2.25124 2.62173 2.94604 4.43797 2.02794 1.79761 4.43797 5.94342 2.82085 2.94003 2.97314 5.97813 3.26163 3.3246 4.66201 7.43446 4.31235 4.42265 1.40519 4.36267 2.36156 4.17529 1.88027 5.96935 3.29091 4.45259 2.36156 5.77816 3.51277 5.88789 2.87147 7.40644 4.43699 6.33809 3.61699 7.56752 4.5779 5.28324 5.50635 9.07521 5.92865 6.45061 4.65719 9.0911 5.90712 7.31424 6.70483 10.6795 7.50479 8.57654 5.94342 7.45754 3.74837 4.27647 7.45754 8.96766 4.83881 5.74882 6.3493 8.83114 5.39566 5.73586 8.01111 10.1613 6.52341 7.16104 8.96766 10.453 6.08939 7.30871 10.453 11.8858 7.47359 8.9065 9.6232 11.4164 7.70513 8.63143 11.1591 12.5848 8.94053 10.0945 7.37698 10.454 7.25205 7.77459 9.16848 11.6836 8.51802 9.14067 8.7282 12.0905 9.05389 9.93118 10.6206 13.2783 10.4764 11.2499 10.8408 12.7538 9.71845 10.4757 12.3618 13.6614 10.8545 11.7298 12.321 14.2191 11.7365 12.4512 13.7884 14.9066 12.8218 13.4846 3.51277 7.191 4.8455 7.6403 4.09047 8.77538 5.69141 8.23268 4.8455 8.60887 6.32927 9.40499 5.45605 10.0787 7.04451 10.0976 5.89402 10.4994 7.22786 9.31664 8.03693 12.1478 8.97743 10.6411 7.21557 11.7702 8.53023 11.2321 9.36817 13.425 10.3163 12.561 6.32927 10.0303 7.92221 11.1473 6.92085 11.3204 8.47502 11.8939 7.92221 11.4437 9.57526 12.8272 8.44333 12.5026 9.95222 13.582 8.55781 12.8962 9.80734 13.0154 10.6189 14.4825 11.5086 14.2812 9.87829 13.8799 11.052 14.6287 11.7418 15.3123 12.5544 15.7639 10.1606 13.5949 10.6893 12.0019 12.1129 14.7647 12.2369 13.2583 11.5176 14.8774 12.1003 13.8782 13.472 16.0221 13.7116 15.0363 13.8092 15.6142 13.5536 14.3196 15.1975 16.1262 14.6083 15.1316 15.1236 16.7953 15.0532 15.9374 16.4075 17.1658 16.0729 16.5232 12.7021 15.8852 13.2584 15.4937 14.586 16.9738 14.853 16.5059 13.6565 16.5941 14.1577 16.8082 15.3862 17.5776 15.6433 17.6231 16.1415 17.6651 16.1678 17.2173 17.2913 17.9131 17.1305 17.5672 16.7856 18.164 16.8663 18.1111 17.7661 18.2944 17.7362 18.2126 11.8858 13.2331 8.94961 10.4909 13.2331 14.459 10.467 12.0108 12.5904 13.6517 10.2175 11.5043 13.8879 14.5992 11.513 12.8194 14.459 15.5271 11.9713 13.4171 15.5271 16.4028 13.4074 14.665 15.0231 15.4079 12.7951 14.0029 15.9692 16.058 14.0262 15.0232 13.7051 14.4085 11.9304 12.8674 14.8497 15.0008 12.95 13.8636 14.9966 15.3497 13.7364 14.3224 15.9317 15.5711 14.4963 14.9552 15.7803 15.4462 13.9135 14.7022 16.4876 15.7535 14.8164 15.375 16.5928 15.6049 15.1255 15.3896 16.9904 15.4947 15.6517 15.646 16.4028 17.0554 14.7226 15.7156 17.0554 17.4604 15.8683 16.5375 16.7031 16.5304 15.1657 15.8551 17.2066 16.8088 16.1727 16.4803 17.4604 17.6005 16.8023 17.1079 17.6005 17.467 17.4902 17.4135 17.4674 16.8809 17.0088 16.8879 17.4801 16.7395 17.6398 17.0745 16.9685 15.9316 15.6477 15.8807 17.2262 15.9882 16.3912 16.2243 17.1465 15.2894 16.1018 15.7558 17.0926 15.0381 16.4969 15.758 17.2698 15.9291 17.0255 16.4154 17.1135 15.7585 17.5262 16.4672 16.8677 14.7841 16.8481 15.6948 16.5153 14.5582 17.1546 15.6048 16.2484 16.3073 15.3956 15.6696 16.9528 16.1863 15.9321 15.9347 17.2895 17.1318 16.7522 16.7693 17.7617 16.7202 17.1012 16.6823 17.3208 15.8144 16.2529 15.952 17.3815 15.2636 16.4081 15.7684 17.8417 15.9876 17.1563 16.2993 17.5725 15.0223 16.9781 15.6875 17.9949 17.7056 17.7074 17.5307 18.2433 17.0623 17.8985 17.1168 18.2809 17.9453 18.2046 17.903 18.3182 17.1273 18.2595 17.192 18.0579 16.0369 17.7348 16.3686 17.4905 14.7206 17.2778 15.3659 17.8998 15.8858 17.9223 16.1246 17.0816 14.3051 17.2478 14.7855 17.1818 14.6248 16.4573 15.4504 16.7848 14.0005 16.4624 15.0791 17.0226 13.9465 16.648 14.9443 16.2848 12.9158 16.2617 14.194 16.266 13.4926 16.4773 14.7403 15.7071 13.1817 16.5386 14.5108 15.4736 12.1068 15.9175 13.5757 14.7158 11.6793 15.6993 13.2179 16.6249 13.2503 16.618 14.2284 15.5788 11.8196 15.8728 13.1188 15.9562 12.5203 16.3252 13.3066 14.6582 10.739 15.2789 11.8789 14.5027 10.682 15.1768 12.2339 13.5719 10.1066 14.6637 11.7668 13.368 9.27366 14.2662 10.7549 12.3072 8.52284 13.4631 10.2048 9.57526 12.8278 11.2354 14.402 9.98166 13.6229 11.4386 15.1235 11.2354 14.1535 12.8484 15.8284 11.4932 14.6734 12.8925 16.4821 11.1452 14.7299 12.2549 16.041 12.7109 15.923 13.4634 16.985 12.3332 15.4588 13.404 17.2281 13.5168 16.3377 14.2523 17.9337 12.8484 15.386 14.3613 17.0648 12.9357 15.6405 14.2708 17.6256 14.3613 16.4879 15.7243 18.074 14.2685 16.5057 15.5307 18.5276 13.4217 16.08 14.4842 18.1733 14.1635 16.591 14.9415 18.6114 14.394 16.6052 15.4771 18.8681 14.6664 16.7258 15.5513 19.0317 14.3528 17.0045 14.8125 17.8026 15.8389 17.822 16.0923 18.3714 14.7887 17.1405 15.2554 18.4774 15.9418 17.7248 16.2361 18.7601 17.0159 18.2672 17.1493 18.6035 17.7873 18.2714 17.8802 18.444 16.827 17.9824 17.0489 18.7089 17.3455 17.8402 17.5867 18.279 14.985 17.0476 15.5343 18.8519 15.723 17.3328 16.1367 18.8228 14.9848 16.7913 15.7081 18.9624 15.2423 16.7226 15.8797 18.6169 16.2476 17.3507 16.6296 18.4718 16.4667 17.0315 16.9151 17.7683 15.3438 16.4489 15.9894 17.966 15.2157 15.9143 15.9632 16.997 15.7243 17.4218 16.8931 18.8246 15.4544 17.247 16.6322 19.1681 16.8931 18.1524 17.8302 19.2929 16.4607 17.8405 17.5392 19.5352 15.2373 17.0426 16.3622 19.3117 15.0495 16.788 16.0979 19.2185 15.9419 17.3952 17.1172 19.5112 15.3414 16.8204 16.5901 19.2046 17.8302 18.6497 18.5063 19.4643 17.2605 18.2629 18.2218 19.6254 18.5063 18.8899 18.9013 19.3337 17.8338 18.4929 18.6562 19.4438 16.5011 17.6599 17.7194 19.4809 15.5714 16.8563 17.0269 19.0286 16.9104 17.8282 18.1469 19.2411 15.7639 16.9135 17.3969 18.7313 14.8508 16.4522 15.8388 18.8606 14.592 15.999 15.5686 18.2208 14.6601 16.1185 15.9821 18.6094 13.8959 15.2903 15.3121 17.7297 14.2238 15.3924 15.2584 17.2935 13.7037 14.6014 14.8712 16.0847 13.045 14.3364 14.5914 16.5798 12.1045 13.2581 13.8225 15.1832 14.4954 15.8726 16.1772 18.2772 13.3006 14.7339 15.2053 17.2457 14.4303 15.7755 16.4377 17.9303 12.9519 14.4488 15.3062 16.864 12.0168 13.4683 14.146 15.9622 10.6749 12.1064 13.0298 14.4624 11.3762 12.9748 14.0427 15.5663 9.75346 11.4 12.6877 14.0774 18.1005 17.8015 18.2238 17.8711 17.9401 16.8582 18.1554 16.8949 17.4411 17.2581 17.7794 17.4537 17.0945 16.2279 17.5907 16.245 17.3257 15.4761 17.6843 15.5598 16.313 13.7274 16.8539 13.9492 16.3214 14.7731 17.0169 14.6951 15.1737 12.9508 16.0865 12.882 16.3244 16.333 16.9212 16.7045 15.7987 15.2405 16.6038 15.2957 14.8096 15.0816 15.7387 15.7139 14.1042 13.9346 15.2705 14.1381 14.9005 13.7673 15.9466 13.5825 13.6747 11.9553 14.9616 11.6348 13.1058 12.4787 14.5329 12.3096 11.8506 10.7419 13.5219 10.2897 14.9973 11.7326 15.7431 12.1968 13.5213 9.68933 14.4706 10.5085 13.7434 10.8607 14.8623 10.9324 12.1736 8.67256 13.4461 9.05169 12.0862 7.93343 13.1987 9.18506 10.9525 6.98828 12.1307 8.58345 10.6748 6.70358 11.9889 7.57548 9.53566 5.56171 10.6999 6.95651 12.2055 9.88116 13.6912 9.56512 10.6282 7.67797 12.2132 7.56381 10.4105 8.77906 12.2578 8.17225 8.90664 6.68558 10.7898 6.11792 9.15209 5.61043 10.6527 5.98171 8.0794 4.29658 9.20198 5.37741 7.53653 4.65702 9.2071 4.46606 6.60004 3.23439 7.66405 3.89649 13.0018 13.604 14.3676 14.6125 12.1041 12.39 13.7116 12.9066 11.0734 12.0584 12.9989 13.5714 9.95601 10.7433 12.107 11.7832 11.0155 10.9622 12.8753 11.0082 9.76337 9.33872 11.8427 8.97133 8.76364 9.32303 11.1288 9.86284 7.51925 7.81278 10.0456 7.85951 9.30606 10.6791 11.8807 12.788 7.94017 9.2173 10.7133 10.9848 8.13461 9.77388 11.2794 12.4421 6.56897 8.14718 9.8505 10.7071 6.60591 7.74958 9.53136 9.10002 5.33168 6.30148 8.32865 7.18068 5.1014 6.56904 8.42512 8.91862 3.76942 5.08447 7.01703 7.11969 8.40464 7.55493 10.6134 6.86922 7.0405 5.67265 9.2067 4.82061 6.26476 6.23481 8.84273 5.82853 5.07776 4.62358 7.51377 3.84206 5.84729 3.81879 7.67102 3.1104 5.10672 2.3919 6.10764 2.55808 4.10638 3.04741 6.06811 2.06645 3.60179 1.7415 4.54785 1.39809 4.15077 4.89472 7.09077 5.27124 3.11767 3.54827 5.7991 3.41295 2.60031 3.73105 5.62856 5.34789 1.61117 2.53523 4.25136 3.63279 2.35184 2.28666 4.43617 1.65282 2.08269 1.19944 2.99432 0.458383 0.834385 1.50826 2.86896 1.99416 0.554884 0.648593 1.46117 0.442069 17.467 17.0608 17.9066 17.4508 17.0608 16.3923 18.0359 17.2256 17.2467 16.3832 18.0373 17.0441 16.7771 15.8177 18.1802 16.8074 16.3923 15.4814 17.8727 16.753 15.4814 14.3571 17.4214 16.056 16.0887 15.0552 18.0555 16.3803 15.2062 14.1146 17.6586 15.7831 16.7765 15.4781 17.8677 16.3938 16.2813 15.0885 18.0251 16.2089 16.0797 14.3735 17.4028 15.5174 15.6008 14.223 17.5686 15.4467 15.6529 14.5891 17.9763 15.9236 14.9167 13.9791 17.7036 15.5445 15.1098 14.082 17.6202 15.3888 14.6251 13.9123 17.523 15.3218 14.3571 13.0564 16.6964 15.1638 13.0564 11.6233 15.7208 14.1103 14.1607 13.021 16.9937 15.0382 12.9887 11.8046 16.0732 14.1685 11.6233 10.1065 14.5249 12.9317 10.1065 8.55819 13.145 11.6636 11.7304 10.4995 14.9174 13.1952 10.4279 9.14248 13.5533 12.1363 14.0977 13.2588 17.1953 15.0732 13.2183 12.4296 16.4467 14.5058 14.1496 13.6697 17.2432 15.2097 13.6714 13.3109 16.7523 15.0081 12.2974 11.4951 15.4608 13.8338 11.3489 10.4616 14.2489 13.0451 13.1671 12.7983 16.03 14.6707 12.6063 12.1041 15.0667 14.1551 15.1868 13.105 16.6579 14.4411 14.7675 13.2431 16.8192 14.5413 14.1336 11.7149 15.6577 13.1991 13.8158 12.1724 15.7957 13.5167 14.4827 13.5261 16.9825 14.7774 14.3289 13.8549 17.092 15.0806 13.7898 12.9081 16.0686 14.0872 14.0106 13.7391 16.3964 14.7773 12.9587 10.25 14.4347 11.8318 12.7795 11.0358 14.5259 12.3997 11.7004 8.7595 13.0279 10.3847 11.6881 9.85731 13.045 11.2177 13.0421 12.2117 14.8939 13.3136 13.6405 13.4992 15.4334 14.3668 12.242 11.4203 13.4835 12.4516 13.1817 13.0797 14.213 13.8094 14.2662 14.1246 17.086 15.3635 14.2296 14.2412 16.9058 15.536 14.3767 14.4957 16.6836 15.4434 14.7628 15.0429 16.8371 15.9567 14.1436 14.1306 16.5031 15.5179 13.9361 13.7411 15.8449 15.245 15.0481 15.2831 16.7783 16.2144 15.1336 15.1536 16.4509 16.1432 14.4032 14.6753 16.0107 15.367 15.1526 15.5813 16.4958 16.1615 14.2724 14.5819 15.059 15.0692 15.3036 15.7634 15.8553 16.0733 15.7395 16.1112 16.7812 16.6402 16.0544 16.2006 16.79 16.7308 16.1165 16.5207 16.4684 16.7164 16.6038 16.7935 16.8056 16.9355 8.55819 7.03143 11.6213 10.3385 7.03143 5.57771 9.99541 8.98295 9.12301 7.77043 12.0135 11.0046 7.8546 6.41873 10.335 9.8076 5.57771 4.24379 8.30847 7.61543 4.24379 3.06768 6.59836 6.24459 6.6551 5.11858 8.55824 8.54707 5.5472 3.89472 6.72674 7.2204 10.3814 9.33783 12.8309 12.1267 9.39906 8.13557 11.2356 11.0664 11.9584 11.2128 13.8661 13.4271 11.1979 10.1216 12.4469 12.4644 8.40216 6.86938 9.50257 9.85534 7.39014 5.55733 7.68605 8.4908 10.3095 8.84102 10.8468 11.2584 9.2927 7.39637 9.12976 9.81673 3.06768 2.07258 4.89762 4.86905 2.07258 1.25816 3.23185 3.47865 4.5407 2.76377 4.89045 5.82254 3.63145 1.73689 3.12583 4.34942 1.25816 0.590177 1.62037 2.05754 0.590177 0 0.191479 0.590177 2.80573 0.854788 1.67799 2.80573 2.05754 0.590177 1.62037 1.25816 6.36545 4.22357 5.86992 6.97883 5.34027 2.90969 4.21744 5.34027 8.16661 5.83114 7.4045 8.16661 6.97883 4.22357 5.86992 6.36545 4.34942 1.73689 3.12583 3.63145 3.47865 1.25816 3.23185 2.07258 5.82254 2.76377 4.89045 4.5407 4.86905 2.07258 4.89762 3.06768 13.5492 13.0442 14.9171 14.6731 12.9447 12.0339 13.728 13.7796 14.9496 14.6228 15.8247 15.6987 14.4581 13.6872 14.8985 14.8647 12.1079 10.7257 12.3124 12.5642 11.0508 9.15786 10.7396 11.0508 13.6535 12.3707 13.704 13.6535 12.5642 10.7257 12.3124 12.1079 16.028 15.82 16.4787 16.3957 15.6293 14.9713 15.8387 15.6293 16.7038 16.5573 16.8138 16.7038 16.3957 15.82 16.4787 16.028 14.8647 13.6872 14.8985 14.4581 13.7796 12.0339 13.728 12.9447 15.6987 14.6228 15.8247 14.9496 14.6731 13.0442 14.9171 13.5492 9.81673 7.39637 9.12976 9.2927 8.4908 5.55733 7.68605 7.39014 11.2584 8.84102 10.8468 10.3095 9.85534 6.86938 9.50257 8.40216 7.2204 3.89472 6.72674 5.5472 6.24459 3.06768 6.59836 4.24379 8.54707 5.11858 8.55824 6.6551 7.61543 4.24379 8.30847 5.57771 12.4644 10.1216 12.4469 11.1979 11.0664 8.13557 11.2356 9.39906 13.4271 11.2128 13.8661 11.9584 12.1267 9.33783 12.8309 10.3814 9.8076 6.41873 10.335 7.8546 8.98295 5.57771 9.99541 7.03143 11.0046 7.77043 12.0135 9.12301 10.3385 7.03143 11.6213 8.55819 10.3937 7.2932 11.48 8.90611 10.5642 8.65882 11.3942 9.99832 9.06723 5.89808 9.83536 7.4449 9.42094 7.45857 9.61855 8.76753 11.383 10.5196 11.8711 11.4977 12.5953 12.4397 12.7585 13.0765 10.4517 9.49962 10.0985 10.4521 11.8463 11.5552 11.1082 12.1544 7.7403 4.61494 8.13756 6.04778 8.26066 6.26985 7.76511 7.5486 6.42132 3.47361 6.42662 4.75593 7.07539 5.10028 5.88114 6.36159 9.43011 8.35654 8.217 9.32135 10.9075 10.42 9.3199 11.0475 8.29971 7.09417 6.29117 8.12133 9.76372 9.04529 7.4819 9.78246 13.9235 14.1618 13.84 14.5086 15.1473 15.5324 14.9147 15.6478 13.3129 13.3878 12.3871 13.669 14.6428 14.8633 13.7024 14.8742 16.114 16.4573 15.8289 16.4036 16.7268 16.8839 16.4789 16.7268 15.7 15.901 14.8861 15.7 16.4036 16.4573 15.8289 16.114 12.4167 12.258 10.7624 12.5624 13.7763 13.7607 12.2818 13.7763 11.2325 10.7944 9.06932 11.2325 12.5624 12.258 10.7624 12.4167 14.8742 14.8633 13.7024 14.6428 15.6478 15.5324 14.9147 15.1473 13.669 13.3878 12.3871 13.3129 14.5086 14.1618 13.84 13.9235 5.10714 2.48666 4.73655 3.60069 5.84918 3.95255 4.01429 5.2243 3.78458 1.64248 3.09307 2.59849 4.56209 2.82852 2.22401 4.15687 7.04545 5.72596 4.41999 6.88249 8.41503 7.46175 5.74714 8.41503 5.66078 4.28079 2.83283 5.66078 6.88249 5.72596 4.41999 7.04545 2.43372 0.903292 1.51217 1.74669 3.19596 1.74865 0.783821 3.19596 1.03274 0.265404 0.0726763 1.03274 1.74669 0.903292 1.51217 2.43372 4.15687 2.82852 2.22401 4.56209 5.2243 3.95255 4.01429 5.84918 2.59849 1.64248 3.09307 3.78458 3.60069 2.48666 4.73655 5.10714 9.78246 9.04529 7.4819 9.76372 11.0475 10.42 9.3199 10.9075 8.12133 7.09417 6.29117 8.29971 9.32135 8.35654 8.217 9.43011 12.1544 11.5552 11.1082 11.8463 13.0765 12.4397 12.7585 12.5953 10.4521 9.49962 10.0985 10.4517 11.4977 10.5196 11.8711 11.383 6.36159 5.10028 5.88114 7.07539 7.5486 6.26985 7.76511 8.26066 4.75593 3.47361 6.42662 6.42132 6.04778 4.61494 8.13756 7.7403 8.76753 7.45857 9.61855 9.42094 9.99832 8.65882 11.3942 10.5642 7.4449 5.89808 9.83536 9.06723 8.90611 7.2932 11.48 10.3937 16.9355 16.7935 16.8056 16.6038 16.7308 16.2006 16.79 16.0544 16.7164 16.5207 16.4684 16.1165 16.6402 16.1112 16.7812 15.7395 16.1432 15.1536 16.4509 15.1336 15.245 13.7411 15.8449 13.9361 16.2144 15.2831 16.7783 15.0481 15.5179 14.1306 16.5031 14.1436 16.0733 15.7634 15.8553 15.3036 16.1615 15.5813 16.4958 15.1526 15.0692 14.5819 15.059 14.2724 15.367 14.6753 16.0107 14.4032 15.9567 15.0429 16.8371 14.7628 15.536 14.2412 16.9058 14.2296 15.4434 14.4957 16.6836 14.3767 15.3635 14.1246 17.086 14.2662 14.1551 12.1041 15.0667 12.6063 13.0451 10.4616 14.2489 11.3489 14.6707 12.7983 16.03 13.1671 13.8338 11.4951 15.4608 12.2974 12.1363 9.14248 13.5533 10.4279 11.6636 8.55819 13.145 10.1065 13.1952 10.4995 14.9174 11.7304 12.9317 10.1065 14.5249 11.6233 15.0081 13.3109 16.7523 13.6714 14.5058 12.4296 16.4467 13.2183 15.2097 13.6697 17.2432 14.1496 15.0732 13.2588 17.1953 14.0977 14.1685 11.8046 16.0732 12.9887 14.1103 11.6233 15.7208 13.0564 15.0382 13.021 16.9937 14.1607 15.1638 13.0564 16.6964 14.3571 13.8094 13.0797 14.213 13.1817 14.3668 13.4992 15.4334 13.6405 12.4516 11.4203 13.4835 12.242 13.3136 12.2117 14.8939 13.0421 14.7773 13.7391 16.3964 14.0106 15.0806 13.8549 17.092 14.3289 14.0872 12.9081 16.0686 13.7898 14.7774 13.5261 16.9825 14.4827 11.2177 9.85731 13.045 11.6881 12.3997 11.0358 14.5259 12.7795 10.3847 8.7595 13.0279 11.7004 11.8318 10.25 14.4347 12.9587 13.5167 12.1724 15.7957 13.8158 14.5413 13.2431 16.8192 14.7675 13.1991 11.7149 15.6577 14.1336 14.4411 13.105 16.6579 15.1868 15.3218 13.9123 17.523 14.6251 15.5445 13.9791 17.7036 14.9167 15.3888 14.082 17.6202 15.1098 15.9236 14.5891 17.9763 15.6529 15.7831 14.1146 17.6586 15.2062 16.056 14.3571 17.4214 15.4814 16.3803 15.0552 18.0555 16.0887 16.753 15.4814 17.8727 16.3923 15.4467 14.223 17.5686 15.6008 16.2089 15.0885 18.0251 16.2813 15.5174 14.3735 17.4028 16.0797 16.3938 15.4781 17.8677 16.7765 16.8074 15.8177 18.1802 16.7771 17.2256 16.3923 18.0359 17.0608 17.0441 16.3832 18.0373 17.2467 17.4508 17.0608 17.9066 17.467 18.9013 18.8578 19.0051 18.9065 18.1676 18.5137 18.8268 19.0044 19.0051 18.5469 18.8173 18.1987 18.2564 18.3135 18.7255 18.3294 17.1674 17.8871 18.3795 18.8173 15.9348 16.9917 17.6793 18.3516 17.2704 17.8205 18.4004 18.2377 16.0872 17.0718 17.846 17.9222 18.8173 17.961 18.3471 17.2357 18.1018 17.8876 18.3526 17.4485 18.3471 17.1135 17.6127 16.0526 17.7125 17.2382 17.7162 16.3975 17.2188 17.6116 18.1963 17.5319 16.2105 17.1201 17.8656 17.4651 17.0118 17.2449 17.7594 16.7283 16.2818 17.0936 17.7061 16.9893 14.5133 15.8515 16.7493 17.6227 12.9534 14.4999 15.6189 16.6537 14.7543 16.0815 17.0721 17.3869 13.3254 14.8733 16.0927 16.6408 11.3115 12.9789 14.3217 15.4741 9.64728 11.3367 12.8934 14.1184 11.8574 13.4796 14.9262 15.6969 10.4075 11.9401 13.5941 14.5717 15.1217 16.4084 17.349 17.2276 13.9961 15.4812 16.6378 16.8012 15.5503 16.751 17.5155 17.1213 14.8321 16.193 17.1478 17.0681 12.8728 14.3517 15.7273 16.171 11.782 13.0421 14.6179 15.3273 14.1276 15.4065 16.5688 16.7814 13.4239 14.3903 15.754 16.2246 17.6127 16.0273 16.6403 14.6924 17.1028 16.3754 16.8317 15.2168 16.6403 14.7342 15.4622 13.2044 16.2921 15.3162 15.7212 13.9493 16.6485 16.7079 17.0872 15.8523 16.2686 16.9467 17.3391 16.4905 16.1279 15.9929 16.1833 14.9242 16.1333 16.6367 16.742 15.9521 15.4622 13.2737 14.1155 11.6429 15.3033 14.0849 14.4119 12.6382 14.1155 11.6913 12.6394 10.0645 14.1613 12.7111 12.9353 11.3241 15.4491 15.0979 15.0577 13.9583 15.8378 16.1284 15.9014 15.3501 14.6112 14.0276 13.7267 12.9622 15.3477 15.3971 14.8141 14.6575 15.9564 17.0202 17.5086 17.022 15.6814 16.87 17.5187 17.3496 16.2526 17.1326 17.2739 16.8709 16.4038 17.3878 17.6618 17.5488 15.3964 16.454 17.3029 17.3948 15.047 15.7488 16.8122 17.101 16.497 17.3354 17.8087 17.8873 16.4498 16.9347 17.6441 17.8194 16.3589 17.0185 16.7709 16.6079 16.8844 17.6475 17.5107 17.5795 16.2096 16.627 15.9764 16.1803 17.0373 17.5783 17.0243 17.3753 17.2952 17.9308 17.9978 18.1589 17.4957 17.8175 18.1461 18.2788 17.6984 18.1579 17.816 18.1407 18.0966 18.3109 18.2559 18.4152 8.02178 9.62633 11.3698 12.6237 6.49456 7.90322 9.78455 11.0279 9.02929 10.3 12.1203 13.2844 7.76718 8.60844 10.5305 11.8556 5.12016 6.22276 8.16716 9.36762 3.9424 4.63772 6.54149 7.67597 6.64968 6.91592 8.85221 10.3073 5.68236 5.27289 7.11571 8.66156 10.7422 11.5818 13.3166 14.2662 9.75749 10.007 11.8385 12.991 12.698 13.1552 14.692 15.3746 11.9232 11.7246 13.3869 14.2232 8.81877 8.35999 10.2085 11.5121 7.90704 6.68901 8.46629 9.84806 11.0749 10.1345 11.8619 12.7775 10.1378 8.43583 10.1651 11.0604 2.9842 3.19518 4.92472 5.98077 2.23176 1.93315 3.32793 4.30325 4.84405 3.72901 5.3586 6.94081 4.091 2.33928 3.64561 5.16823 1.62192 0.876408 1.76245 2.65749 1.05373 0.0726763 0.409935 1.05373 3.37226 1.21627 2.17473 3.37226 2.65749 0.876408 1.76245 1.62192 7.00064 5.05276 6.67734 8.02605 6.08522 3.53857 4.96927 6.08522 9.11301 6.70187 8.38342 9.11301 8.02605 5.05276 6.67734 7.00064 5.16823 2.33928 3.64561 4.091 4.30325 1.93315 3.32793 2.23176 6.94081 3.72901 5.3586 4.84405 5.98077 3.19518 4.92472 2.9842 14.5821 14.7496 16.018 16.4338 13.9616 13.471 14.9159 15.3814 16.1978 16.171 17.1268 17.3082 15.7009 15.0551 16.2467 16.3445 13.1631 11.9481 13.5285 13.9545 12.1867 10.2392 11.9111 12.1867 14.947 13.6247 15.0268 14.947 13.9545 11.9481 13.5285 13.1631 17.4204 17.2881 17.9062 17.9053 17.0364 16.3533 17.265 17.0364 18.1729 18.0168 18.2908 18.1729 17.9053 17.2881 17.9062 17.4204 16.3445 15.0551 16.2467 15.7009 15.3814 13.471 14.9159 13.9616 17.3082 16.171 17.1268 16.1978 16.4338 14.7496 16.018 14.5821 11.0604 8.43583 10.1651 10.1378 9.84806 6.68901 8.46629 7.90704 12.7775 10.1345 11.8619 11.0749 11.5121 8.35999 10.2085 8.81877 8.66156 5.27289 7.11571 5.68236 7.67597 4.63772 6.54149 3.9424 10.3073 6.91592 8.85221 6.64968 9.36762 6.22276 8.16716 5.12016 14.2232 11.7246 13.3869 11.9232 12.991 10.007 11.8385 9.75749 15.3746 13.1552 14.692 12.698 14.2662 11.5818 13.3166 10.7422 11.8556 8.60844 10.5305 7.76718 11.0279 7.90322 9.78455 6.49456 13.2844 10.3 12.1203 9.02929 12.6237 9.62633 11.3698 8.02178 12.6394 10.0367 11.0735 8.5257 12.8917 11.2292 11.3253 10.0417 11.0735 8.36169 9.45525 7.07951 11.519 9.67679 9.61734 8.8174 13.6146 12.7931 12.2133 11.938 14.6356 14.4309 13.4898 13.8502 12.4612 11.4127 10.5473 10.8839 13.6837 13.2312 11.9525 12.9126 9.45525 6.71775 7.81752 5.77078 10.0654 8.09268 7.84693 7.66637 7.81752 5.15333 6.18684 4.6298 8.55007 6.51582 6.04936 6.59209 11.1555 9.91113 8.76712 9.79761 12.4854 11.814 10.2443 11.8417 9.70511 8.32032 6.92418 8.68098 11.0467 10.211 8.43429 10.6533 15.7569 15.9276 14.887 15.5506 16.8053 17.1383 16.189 16.8959 14.9725 14.9114 13.5216 14.7011 16.1588 16.3132 15.0208 16.1293 17.6497 17.9691 17.2431 17.7965 18.2022 18.3662 17.9501 18.2022 17.1246 17.3488 16.2938 17.1246 17.7965 17.9691 17.2431 17.6497 13.8482 13.5911 11.9264 13.6382 15.0951 15.1165 13.5694 15.0951 12.3967 12.003 10.1837 12.3967 13.6382 13.5911 11.9264 13.8482 16.1293 16.3132 15.0208 16.1588 16.8959 17.1383 16.189 16.8053 14.7011 14.9114 13.5216 14.9725 15.5506 15.9276 14.887 15.7569 6.18684 3.71105 4.58195 3.66403 6.98847 4.98481 4.26231 5.58849 4.58195 2.42515 3.01349 2.85112 5.39271 3.54125 2.54314 4.64723 8.12255 6.68136 5.09989 7.54631 9.38788 8.473 6.6418 9.38788 6.42652 5.05266 3.47113 6.42652 7.54631 6.68136 5.09989 8.12255 3.01349 1.32287 1.48525 2.14178 3.7728 2.25049 1.14248 3.7728 1.48525 0.48188 0 1.48525 2.14178 1.32287 1.48525 3.01349 4.64723 3.54125 2.54314 5.39271 5.58849 4.98481 4.26231 6.98847 2.85112 2.42515 3.01349 4.58195 3.66403 3.71105 4.58195 6.18684 10.6533 10.211 8.43429 11.0467 11.8417 11.814 10.2443 12.4854 8.68098 8.32032 6.92418 9.70511 9.79761 9.91113 8.76712 11.1555 12.9126 13.2312 11.9525 13.6837 13.8502 14.4309 13.4898 14.6356 10.8839 11.4127 10.5473 12.4612 11.938 12.7931 12.2133 13.6146 6.59209 6.51582 6.04936 8.55007 7.66637 8.09268 7.84693 10.0654 4.6298 5.15333 6.18684 7.81752 5.77078 6.71775 7.81752 9.45525 8.8174 9.67679 9.61734 11.519 10.0417 11.2292 11.3253 12.8917 7.07951 8.36169 9.45525 11.0735 8.5257 10.0367 11.0735 12.6394 18.4152 18.3109 18.2559 18.0966 18.2788 17.8175 18.1461 17.4957 18.1407 18.1579 17.816 17.6984 18.1589 17.9308 17.9978 17.2952 17.8194 16.9347 17.6441 16.4498 17.101 15.7488 16.8122 15.047 17.8873 17.3354 17.8087 16.497 17.3948 16.454 17.3029 15.3964 17.3753 17.5783 17.0243 17.0373 17.5795 17.6475 17.5107 16.8844 16.1803 16.627 15.9764 16.2096 16.6079 17.0185 16.7709 16.3589 17.5488 17.3878 17.6618 16.4038 17.3496 16.87 17.5187 15.6814 16.8709 17.1326 17.2739 16.2526 17.022 17.0202 17.5086 15.9564 16.2246 14.3903 15.754 13.4239 15.3273 13.0421 14.6179 11.782 16.7814 15.4065 16.5688 14.1276 16.171 14.3517 15.7273 12.8728 14.5717 11.9401 13.5941 10.4075 14.1184 11.3367 12.8934 9.64728 15.6969 13.4796 14.9262 11.8574 15.4741 12.9789 14.3217 11.3115 17.0681 16.193 17.1478 14.8321 16.8012 15.4812 16.6378 13.9961 17.1213 16.751 17.5155 15.5503 17.2276 16.4084 17.349 15.1217 16.6408 14.8733 16.0927 13.3254 16.6537 14.4999 15.6189 12.9534 17.3869 16.0815 17.0721 14.7543 17.6227 15.8515 16.7493 14.5133 14.6575 15.3971 14.8141 15.3477 15.3501 16.1284 15.9014 15.8378 12.9622 14.0276 13.7267 14.6112 13.9583 15.0979 15.0577 15.4491 15.9521 16.6367 16.742 16.1333 16.4905 16.9467 17.3391 16.2686 14.9242 15.9929 16.1833 16.1279 15.8523 16.7079 17.0872 16.6485 11.3241 12.7111 12.9353 14.1613 12.6382 14.0849 14.4119 15.3033 10.0645 11.6913 12.6394 14.1155 11.6429 13.2737 14.1155 15.4622 13.9493 15.3162 15.7212 16.2921 15.2168 16.3754 16.8317 17.1028 13.2044 14.7342 15.4622 16.6403 14.6924 16.0273 16.6403 17.6127 16.9893 17.0936 17.7061 16.2818 17.4651 17.1201 17.8656 16.2105 16.7283 17.2449 17.7594 17.0118 17.5319 17.6116 18.1963 17.2188 17.9222 17.0718 17.846 16.0872 18.3516 16.9917 17.6793 15.9348 18.2377 17.8205 18.4004 17.2704 18.8173 17.8871 18.3795 17.1674 16.3975 17.2382 17.7162 17.7125 17.4485 17.8876 18.3526 18.1018 16.0526 17.1135 17.6127 18.3471 17.2357 17.961 18.3471 18.8173 18.3294 18.3135 18.7255 18.2564 19.0044 18.5137 18.8268 18.1676 18.1987 18.5469 18.8173 19.0051 18.9065 18.8578 19.0051 18.9013 0.442069 0.648593 1.46117 0.554884 0.458383 1.19944 2.99432 2.08269 1.99416 1.50826 2.86896 0.834385 1.65282 2.28666 4.43617 2.35184 1.39809 1.7415 4.54785 3.60179 2.55808 2.3919 6.10764 5.10672 2.06645 3.04741 6.06811 4.10638 3.1104 3.81879 7.67102 5.84729 3.63279 2.53523 4.25136 1.61117 3.41295 3.54827 5.7991 3.11767 5.34789 3.73105 5.62856 2.60031 5.27124 4.89472 7.09077 4.15077 3.84206 4.62358 7.51377 5.07776 4.82061 5.67265 9.2067 7.0405 5.82853 6.23481 8.84273 6.26476 6.86922 7.55493 10.6134 8.40464 3.89649 3.23439 7.66405 6.60004 5.37741 4.29658 9.20198 8.0794 4.46606 4.65702 9.2071 7.53653 5.98171 5.61043 10.6527 9.15209 6.95651 5.56171 10.6999 9.53566 8.58345 6.98828 12.1307 10.9525 7.57548 6.70358 11.9889 10.6748 9.18506 7.93343 13.1987 12.0862 6.11792 6.68558 10.7898 8.90664 7.56381 7.67797 12.2132 10.6282 8.17225 8.77906 12.2578 10.4105 9.56512 9.88116 13.6912 12.2055 9.05169 8.67256 13.4461 12.1736 10.5085 9.68933 14.4706 13.5213 10.9324 10.8607 14.8623 13.7434 12.1968 11.7326 15.7431 14.9973 7.11969 5.08447 7.01703 3.76942 7.18068 6.30148 8.32865 5.33168 8.91862 6.56904 8.42512 5.1014 9.10002 7.74958 9.53136 6.60591 7.85951 7.81278 10.0456 7.51925 8.97133 9.33872 11.8427 9.76337 9.86284 9.32303 11.1288 8.76364 11.0082 10.9622 12.8753 11.0155 10.7071 8.14718 9.8505 6.56897 10.9848 9.2173 10.7133 7.94017 12.4421 9.77388 11.2794 8.13461 12.788 10.6791 11.8807 9.30606 11.7832 10.7433 12.107 9.95601 12.9066 12.39 13.7116 12.1041 13.5714 12.0584 12.9989 11.0734 14.6125 13.604 14.3676 13.0018 10.2897 10.7419 13.5219 11.8506 11.6348 11.9553 14.9616 13.6747 12.3096 12.4787 14.5329 13.1058 13.5825 13.7673 15.9466 14.9005 12.882 12.9508 16.0865 15.1737 13.9492 13.7274 16.8539 16.313 14.6951 14.7731 17.0169 16.3214 15.5598 15.4761 17.6843 17.3257 14.1381 13.9346 15.2705 14.1042 15.2957 15.2405 16.6038 15.7987 15.7139 15.0816 15.7387 14.8096 16.7045 16.333 16.9212 16.3244 16.245 16.2279 17.5907 17.0945 16.8949 16.8582 18.1554 17.9401 17.4537 17.2581 17.7794 17.4411 17.8711 17.8015 18.2238 18.1005 10.2048 8.52284 13.4631 12.3072 11.7668 10.1066 14.6637 13.5719 10.7549 9.27366 14.2662 13.368 12.2339 10.682 15.1768 14.5027 13.2179 11.6793 15.6993 14.7158 14.5108 13.1817 16.5386 15.7071 13.5757 12.1068 15.9175 15.4736 14.7403 13.4926 16.4773 16.266 11.8789 10.739 15.2789 14.6582 13.1188 11.8196 15.8728 15.5788 13.3066 12.5203 16.3252 15.9562 14.2284 13.2503 16.618 16.6249 14.194 12.9158 16.2617 16.2848 15.0791 14.0005 16.4624 16.7848 14.9443 13.9465 16.648 17.0226 15.4504 14.6248 16.4573 17.1818 15.6048 14.5582 17.1546 16.5153 16.4672 15.7585 17.5262 17.1135 15.6948 14.7841 16.8481 16.8677 16.4154 15.9291 17.0255 17.2698 17.0745 16.7395 17.6398 17.4801 17.4135 17.467 17.4902 17.6005 16.8879 16.8809 17.0088 17.4674 17.1079 17.6005 16.8023 17.4604 15.758 15.0381 16.4969 17.0926 16.2243 15.9882 16.3912 17.2262 15.7558 15.2894 16.1018 17.1465 15.8807 15.9316 15.6477 16.9685 16.4803 16.8088 16.1727 17.2066 16.5375 17.4604 15.8683 17.0554 15.8551 16.5304 15.1657 16.7031 15.7156 17.0554 14.7226 16.4028 14.7855 14.3051 17.2478 17.0816 15.3659 14.7206 17.2778 17.4905 16.1246 15.8858 17.9223 17.8998 16.3686 16.0369 17.7348 18.0579 15.6875 15.0223 16.9781 17.5725 15.7684 15.2636 16.4081 17.3815 16.2993 15.9876 17.1563 17.8417 15.952 15.8144 16.2529 17.3208 17.192 17.1273 18.2595 18.3182 17.1168 17.0623 17.8985 18.2433 17.903 17.9453 18.2046 18.2809 17.5307 17.7056 17.7074 17.9949 16.6823 16.7202 17.1012 17.7617 15.9347 16.1863 15.9321 16.9528 16.7693 17.1318 16.7522 17.2895 15.6696 16.3073 15.3956 16.2484 15.646 15.4947 15.6517 16.9904 15.375 15.7535 14.8164 16.4876 15.3896 15.6049 15.1255 16.5928 14.7022 15.4462 13.9135 15.7803 15.0232 16.058 14.0262 15.9692 14.665 16.4028 13.4074 15.5271 14.0029 15.4079 12.7951 15.0231 13.4171 15.5271 11.9713 14.459 14.9552 15.5711 14.4963 15.9317 13.8636 15.0008 12.95 14.8497 14.3224 15.3497 13.7364 14.9966 12.8674 14.4085 11.9304 13.7051 12.8194 14.5992 11.513 13.8879 12.0108 14.459 10.467 13.2331 11.5043 13.6517 10.2175 12.5904 10.4909 13.2331 8.94961 11.8858 14.0774 11.4 12.6877 9.75346 14.4624 12.1064 13.0298 10.6749 15.5663 12.9748 14.0427 11.3762 15.9622 13.4683 14.146 12.0168 15.1832 13.2581 13.8225 12.1045 16.0847 14.6014 14.8712 13.7037 16.5798 14.3364 14.5914 13.045 17.2935 15.3924 15.2584 14.2238 16.864 14.4488 15.3062 12.9519 17.2457 14.7339 15.2053 13.3006 17.9303 15.7755 16.4377 14.4303 18.2772 15.8726 16.1772 14.4954 17.7297 15.2903 15.3121 13.8959 18.2208 15.999 15.5686 14.592 18.6094 16.1185 15.9821 14.6601 18.8606 16.4522 15.8388 14.8508 16.997 15.9143 15.9632 15.2157 17.7683 17.0315 16.9151 16.4667 17.966 16.4489 15.9894 15.3438 18.4718 17.3507 16.6296 16.2476 18.279 17.8402 17.5867 17.3455 18.444 18.2714 17.8802 17.7873 18.7089 17.9824 17.0489 16.827 18.6035 18.2672 17.1493 17.0159 18.6169 16.7226 15.8797 15.2423 18.8228 17.3328 16.1367 15.723 18.9624 16.7913 15.7081 14.9848 18.8519 17.0476 15.5343 14.985 18.7601 17.7248 16.2361 15.9418 18.3714 17.822 16.0923 15.8389 18.4774 17.1405 15.2554 14.7887 17.8026 17.0045 14.8125 14.3528 18.7313 16.9135 17.3969 15.7639 19.0286 16.8563 17.0269 15.5714 19.2411 17.8282 18.1469 16.9104 19.4809 17.6599 17.7194 16.5011 19.2046 16.8204 16.5901 15.3414 19.2185 16.788 16.0979 15.0495 19.5112 17.3952 17.1172 15.9419 19.3117 17.0426 16.3622 15.2373 19.4438 18.4929 18.6562 17.8338 19.6254 18.2629 18.2218 17.2605 19.3337 18.8899 18.9013 18.5063 19.4643 18.6497 18.5063 17.8302 19.5352 17.8405 17.5392 16.4607 19.1681 17.247 16.6322 15.4544 19.2929 18.1524 17.8302 16.8931 18.8246 17.4218 16.8931 15.7243 19.0317 16.7258 15.5513 14.6664 18.6114 16.591 14.9415 14.1635 18.8681 16.6052 15.4771 14.394 18.1733 16.08 14.4842 13.4217 17.9337 16.3377 14.2523 13.5168 16.985 15.923 13.4634 12.7109 17.2281 15.4588 13.404 12.3332 16.041 14.7299 12.2549 11.1452 18.5276 16.5057 15.5307 14.2685 17.6256 15.6405 14.2708 12.9357 18.074 16.4879 15.7243 14.3613 17.0648 15.386 14.3613 12.8484 16.4821 14.6734 12.8925 11.4932 15.1235 13.6229 11.4386 9.98166 15.8284 14.1535 12.8484 11.2354 14.402 12.8278 11.2354 9.57526 18.2126 18.2944 17.7362 17.7661 17.5672 17.9131 17.1305 17.2913 18.1111 18.164 16.8663 16.7856 17.2173 17.6651 16.1678 16.1415 16.5232 17.1658 16.0729 16.4075 15.1316 16.1262 14.6083 15.1975 15.9374 16.7953 15.0532 15.1236 14.3196 15.6142 13.5536 13.8092 17.6231 17.5776 15.6433 15.3862 16.5059 16.9738 14.853 14.586 16.8082 16.5941 14.1577 13.6565 15.4937 15.8852 13.2584 12.7021 15.0363 16.0221 13.7116 13.472 13.2583 14.7647 12.2369 12.1129 13.8782 14.8774 12.1003 11.5176 12.0019 13.5949 10.6893 10.1606 13.4846 14.9066 12.8218 13.7884 11.7298 13.6614 10.8545 12.3618 12.4512 14.2191 11.7365 12.321 10.4757 12.7538 9.71845 10.8408 10.0945 12.5848 8.94053 11.1591 8.9065 11.8858 7.47359 10.453 8.63143 11.4164 7.70513 9.6232 7.30871 10.453 6.08939 8.96766 11.2499 13.2783 10.4764 10.6206 9.14067 11.6836 8.51802 9.16848 9.93118 12.0905 9.05389 8.7282 7.77459 10.454 7.25205 7.37698 7.16104 10.1613 6.52341 8.01111 5.74882 8.96766 4.83881 7.45754 5.73586 8.83114 5.39566 6.3493 4.27647 7.45754 3.74837 5.94342 15.7639 15.3123 12.5544 11.7418 14.2812 14.4825 11.5086 10.6189 14.6287 13.8799 11.052 9.87829 13.0154 12.8962 9.80734 8.55781 12.561 13.425 10.3163 9.36817 10.6411 12.1478 8.97743 8.03693 11.2321 11.7702 8.53023 7.21557 9.31664 10.4994 7.22786 5.89402 13.582 12.5026 9.95222 8.44333 11.8939 11.3204 8.47502 6.92085 12.8272 11.4437 9.57526 7.92221 11.1473 10.0303 7.92221 6.32927 10.0976 10.0787 7.04451 5.45605 8.23268 8.77538 5.69141 4.09047 9.40499 8.60887 6.32927 4.8455 7.6403 7.191 4.8455 3.51277 8.57654 10.6795 7.50479 6.70483 6.45061 9.07521 5.92865 5.50635 7.31424 9.0911 5.90712 4.65719 5.28324 7.56752 4.5779 3.61699 4.42265 7.43446 4.31235 4.66201 2.94003 5.94342 2.82085 4.43797 3.3246 5.97813 3.26163 2.97314 1.79761 4.43797 2.02794 2.94604 6.33809 7.40644 4.43699 2.87147 4.45259 5.96935 3.29091 1.88027 5.88789 5.77816 3.51277 2.36156 4.17529 4.36267 2.36156 1.40519 2.62173 4.47032 2.25124 1.3261 0.993393 2.94604 1.3135 1.46651 2.52188 2.93038 1.40519 0.632151 0.941057 1.46651 0.632151 0 
